Li4 Cl4
1.0
   5.0610191446384887    0.0000000000000000    0.0000000000000003
   0.0000000000000008    5.0610191446384887    0.0000000000000003
   0.0000000000000000    0.0000000000000000    5.0610191446384887
Li Cl
4 4
direct
   0.0005085930678950   -0.0017950563054935   -0.0007478792220334 Li
  -0.0010569325732392    0.5016954556415393    0.4991839391029525 Li
   0.5009843641571975    0.0039719257922617    0.5024952712258665 Li
   0.4991321612420041    0.4993154780033667    0.0008996600221116 Li
   0.4967029116876955   -0.0017033831929347    0.0009739359485449 Cl
   0.4997543708241506    0.5038236098937707    0.4987780274341787 Cl
  -0.0020684351437873   -0.0017577834883368    0.5000277425095535 Cl
  -0.0003177812246298    0.5044069377828667   -0.0007886074071629 Cl
