Si6
1.0
   4.2907141299999996   -0.0000000000000000    0.0000000000000000
   0.0000000000000000    7.4345928499999996    0.0000000000000000
   0.0000000000000000    0.0000000000000000    4.2019222899999997
Si
6
direct
   0.9991109894799727    0.3333360696409892    0.4999999988100685 Si
   0.0008890105200274    0.6666639303590109    0.4999999988100685 Si
   0.5008890093547202    0.8333360703135207    0.4999999988100685 Si
   0.4991109906452799    0.1666639296864790    0.4999999988100685 Si
   0.0000000000000000    0.0000000000000000    0.4999999988100685 Si
   0.4999999988346928    0.4999999993274682    0.4999999988100685 Si
