Li32 Cl32
1.0
  10.2056952920104589    0.0000000000000000    0.0000000000000006
   0.0000000000000016   10.2056952920104589    0.0000000000000006
   0.0000000000000000    0.0000000000000000   10.2056952920104589
Li Cl
32 32
direct
  -0.0009736047290245   -0.0010419680139902   -0.0006252155267309 Li
   0.5010401924206203   -0.0001542316783745    0.0010716844344161 Li
  -0.0020330354367623    0.5006865117846093    0.0016408863720246 Li
   0.4996106741389105    0.5022769609317120   -0.0009795517123249 Li
  -0.0005478771867998   -0.0019630562782191    0.4996413187865651 Li
   0.4987690270100467    0.0019997848207343    0.5005832909330649 Li
   0.0015273755280417    0.5018085623127654    0.4989132488684170 Li
   0.4984956913118535    0.5016244947657974    0.4991089679035201 Li
   0.0003728756632868    0.2495431460810465    0.2501029634093719 Li
   0.4995808507874545    0.2504254053355442    0.2494555914028626 Li
   0.0008445932608459    0.7492643724341461    0.2509175063592641 Li
   0.4987143023022027    0.7495366663051178    0.2490424714383944 Li
   0.0002620176039665    0.2494430066356401    0.7506006500054865 Li
   0.5002641124822721    0.2490917900491536    0.7494459644690117 Li
  -0.0000979788433435    0.7496488320587750    0.7500828526987798 Li
   0.5004839168400032    0.7500443453334277    0.7509760085387350 Li
   0.2492681449229353    0.0014242402044572    0.2490639983795908 Li
   0.7514868758516515    0.0007582431575331    0.2515094572897762 Li
   0.2513833344138564    0.5016220420224802    0.2486805964275938 Li
   0.7488044741654396    0.4992359448009197    0.2512461513301924 Li
   0.2526383924872354   -0.0005467201225190    0.7490528539130296 Li
   0.7490467350267856   -0.0000346977141062    0.7503150569346515 Li
   0.2498164049109418    0.4994272485858663    0.7505520004481774 Li
   0.7505386627473066    0.4991167049219467    0.7492097179623410 Li
   0.2507510081909996    0.2515018343942435   -0.0001639997685111 Li
   0.7506614259598865    0.2506049172938117   -0.0007414343629656 Li
   0.2490222360078914    0.7498764480156069   -0.0005380297703826 Li
   0.7507112397022787    0.7484922202559077   -0.0003652735913656 Li
   0.2507705871503999    0.2498418032174614    0.4998482165293708 Li
   0.7499246439332978    0.2497708105965322    0.4998069602323026 Li
   0.2501212957535678    0.7500146173098745    0.4991219451529615 Li
   0.7512350212524610    0.7500567916108336    0.5004495570548889 Li
   0.2489881997090957   -0.0018269039142503   -0.0002521159341563 Cl
   0.7505806473406256   -0.0016772578826808   -0.0009007899565503 Cl
   0.2494663100473014    0.5010864683946120    0.0021103143941934 Cl
   0.7495299588567694    0.5009330707491136    0.0003822441827802 Cl
   0.2490898907182358    0.0009695465864715    0.5006287049107530 Cl
   0.7501726671268508   -0.0002438587416149    0.4999138162998511 Cl
   0.2513645493024178    0.5010505498122394    0.5017919355166571 Cl
   0.7503415107139865    0.5015090713270933    0.4990644655227373 Cl
   0.2510069434275722    0.2521257282296860    0.2503761543632684 Cl
   0.7498964863974539    0.2506975144344770    0.2502491883447938 Cl
   0.2493814982384442    0.7487690752613601    0.2514980813449127 Cl
   0.7486808364320807    0.7499734239164214    0.2504506416927592 Cl
   0.2494412813413531    0.2498941092137860    0.7490926761698794 Cl
   0.7503957521658523    0.2499747704006838    0.7509484956145082 Cl
   0.2491966449012928    0.7502451610904671    0.7493941172338818 Cl
   0.7503692616886539    0.7516757608079546    0.7492386347934634 Cl
  -0.0005438138048971    0.0006447968861975    0.2489258364579552 Cl
   0.4984582257387913    0.0004109972859741    0.2499974029310660 Cl
   0.0010295353298590    0.4998465244898349    0.2500543766698602 Cl
   0.4991448764124357    0.4999991000189916    0.2498677321209036 Cl
   0.0001895417022230    0.0005433123059712    0.7500906482058002 Cl
   0.4990272160351097   -0.0000209270104570    0.7481559298959073 Cl
   0.0003502765611145    0.5001027630726560    0.7493115125341366 Cl
   0.5013673477921707    0.4994101075031916    0.7510827547131887 Cl
  -0.0011345068624317    0.2511676169517712   -0.0013218239492059 Cl
   0.4954382230021082    0.2480073975149641   -0.0008310506334876 Cl
  -0.0003037745324471    0.7493079835217609    0.0000241945063705 Cl
   0.5007798998950950    0.7499233872462799    0.0016530464765466 Cl
  -0.0002315196135088    0.2508005372914915    0.4995305925241498 Cl
   0.4999122095287087    0.2496327666272311    0.5010147885095584 Cl
  -0.0004309333561539    0.7490366759390805    0.4979711006953852 Cl
   0.4994398438969583    0.7502888517225504    0.4997669800426794 Cl
