Sn8
1.0
   6.6529191677850381    0.0000000000000000    0.0000000000000004
   0.0000000000000011    6.6529191677850381    0.0000000000000004
   0.0000000000000000    0.0000000000000000    6.6529191677850381
Sn
8
direct
   0.5000000000000000    0.5000000000000000   -0.0000000000000000 Sn
   0.2500000000000000    0.7500000000000000    0.7500000000000000 Sn
   0.5000000000000000    0.0000000000000000    0.5000000000000000 Sn
   0.2500000000000000    0.2500000000000000    0.2500000000000000 Sn
  -0.0000000000000000    0.5000000000000000    0.5000000000000000 Sn
   0.7500000000000000    0.7500000000000000    0.2500000000000000 Sn
  -0.0000000000000000    0.0000000000000000    0.0000000000000000 Sn
   0.7500000000000000    0.2500000000000000    0.7500000000000000 Sn
