Li32 Cl32
1.0
  10.2056952920104589    0.0000000000000000    0.0000000000000006
   0.0000000000000016   10.2056952920104589    0.0000000000000006
   0.0000000000000000    0.0000000000000000   10.2056952920104589
Li Cl
32 32
direct
   0.0004948843122119   -0.0001377549505561    0.0006453025241224 Li
   0.5015174191804227   -0.0002332907792129   -0.0002332744219200 Li
   0.0015733951676245    0.5007646075832588   -0.0004677448934685 Li
   0.5005405613115228    0.4995382894874567   -0.0004640140559213 Li
   0.0002410709089307   -0.0019062319287783    0.4982814365767711 Li
   0.4994397838767291   -0.0010090999608827    0.5003130896796739 Li
  -0.0009046790137989    0.4985928990715636    0.5014602494786081 Li
   0.4997750554347955    0.5000672794381422    0.4985805004308113 Li
  -0.0005423772779041    0.2501105139629796    0.2488532465574620 Li
   0.5003743139877960    0.2494015739975470    0.2497093808181872 Li
  -0.0005994899906542    0.7518454545935698    0.2499865524975668 Li
   0.4989461855628190    0.7508195147463018    0.2487836538049672 Li
   0.0002080941642863    0.2480475490872584    0.7486767068437373 Li
   0.5001961360205334    0.2507357461496053    0.7501707369791208 Li
  -0.0001152222467212    0.7497000055376056    0.7485269247234907 Li
   0.4992828076192081    0.7495410581720641    0.7510532279031605 Li
   0.2503423524372431   -0.0017565453075965    0.2503228900793757 Li
   0.7496163363207318   -0.0006744282934393    0.2506094229400637 Li
   0.2510272014326310    0.5009278493846641    0.2491638740626607 Li
   0.7496919267288380    0.5003300430930290    0.2509719513252056 Li
   0.2495225909878184   -0.0001849750292301    0.7488977406434509 Li
   0.7488082000707393    0.0008095325658274    0.7513512437881318 Li
   0.2499282551558588    0.5009998359920782    0.7503603037973487 Li
   0.7493572567962546    0.5003600642634888    0.7515323706073963 Li
   0.2499643059401132    0.2515588796791275   -0.0026100942486706 Li
   0.7508188747051339    0.2500867263963267   -0.0002979058399777 Li
   0.2500914227398364    0.7480197530726413   -0.0002188626405463 Li
   0.7503557970077224    0.7514724496441665   -0.0005163609672794 Li
   0.2491944847994165    0.2495000913746740    0.5009120298760764 Li
   0.7503275400264044    0.2494721913750814    0.5005113766118344 Li
   0.2500967199262374    0.7509650766079671    0.4993005331931988 Li
   0.7496735449250359    0.7496093363305653    0.4985418764814181 Li
   0.2502950294022401    0.0002600935730114    0.0000050946192255 Cl
   0.7497662770600547   -0.0014101566705079   -0.0004190957112454 Cl
   0.2496585480063973    0.4992006782327923   -0.0001606915526839 Cl
   0.7504025623774983    0.5018792373979390    0.0001739346871978 Cl
   0.2502566016031555   -0.0000741716651269    0.4980882973287178 Cl
   0.7499735837987779    0.0000600083284125    0.5024541677970291 Cl
   0.2498083476720464    0.5003004364747923    0.4999654161046710 Cl
   0.7488356272448885    0.5011386127798306    0.5007491629933527 Cl
   0.2507881178715702    0.2490939626294682    0.2513976265695950 Cl
   0.7486033132037253    0.2505846951762324    0.2521823862260376 Cl
   0.2490131127027256    0.7494357884495082    0.2500992842603204 Cl
   0.7494983790953160    0.7484550490439962    0.2500683103962800 Cl
   0.2489416096973673    0.2504718477677408    0.7490839628244305 Cl
   0.7515442246156075    0.2492196321274205    0.7496791249233161 Cl
   0.2508105203086118    0.7487736700535471    0.7502266219969973 Cl
   0.7513023273828502    0.7483984385584639    0.7501839536875219 Cl
   0.0002589254143609    0.0007789427215340    0.2487676060807169 Cl
   0.4986844078051525    0.0005200187897792    0.2502958906140674 Cl
   0.0002495700619882    0.5003451719320550    0.2493224804153752 Cl
   0.5002313980998556    0.5002919928262510    0.2492882801747354 Cl
   0.0018589012012095    0.0004720873720775    0.7488130851350323 Cl
   0.5006541349367020   -0.0009710910491916    0.7507841850698520 Cl
   0.0011543274391778    0.4991823409858572    0.7509598271565892 Cl
   0.5004112602869936    0.5008190317799671    0.7518898054040504 Cl
  -0.0002444841329301    0.2492490405175170   -0.0008862375554212 Cl
   0.4991871950712034    0.2499231823248795    0.0003398952081260 Cl
   0.0002756715005838    0.7508241359961069    0.0000129539943254 Cl
   0.5014481794160479    0.7497363181336887    0.0027101483598702 Cl
   0.0006233624574517    0.2491460001185939    0.4989330525531777 Cl
   0.5004806950394534    0.2497773604272185    0.5007113701940960 Cl
   0.0004714942687461    0.7499274393811191    0.4991563257776911 Cl
   0.4984907333073761    0.7495551299603475    0.5008532439145100 Cl
