Si24
1.0
   8.1252484599999999   -0.3086634700000000   -0.1943324800000000
  -0.4091296900000000    7.6568906500000002   -0.1107131500000000
  -0.2704256300000000   -0.5890366600000000    7.3231006499999998
Si
24
direct
   0.0291179004420458    0.9429283306805275    0.3662135504745766 Si
   0.0591628402823497    0.6400167899895058    0.1099867494445184 Si
   0.9873725395524381    0.1156438404949420    0.6465680706101476 Si
   0.0591403201087862    0.3655089599223653    0.9167593597639498 Si
   0.3421643394729207    0.7761218694287741    0.0996616797292938 Si
   0.7373028994127302    0.8644862395336720    0.2948266805078658 Si
   0.1870832804586929    0.4046954096384238    0.6372543495561110 Si
   0.8452110397894356    0.3812535201650268    0.5790088199390949 Si
   0.1420123199704824    0.9032926694963603    0.9113219197857493 Si
   0.7605222694069916    0.0855673599218137    0.0652376805258326 Si
   0.1510020098650657    0.7137086497595428    0.6234391299618680 Si
   0.7427610896973174    0.3790830799937594    0.2363564696473472 Si
   0.2965082896021891    0.0911990704180358    0.7169999606139518 Si
   0.7572354397448586    0.3436736304356961    0.8870004102902754 Si
   0.3136110197913316    0.8746318999404381    0.4234744595466225 Si
   0.7485893804803685    0.6343725298488826    0.0593592199041335 Si
   0.0453576794076529    0.4204580600518490    0.3274104196010967 Si
   0.8604526194718564    0.6980011503884014    0.5503307396884660 Si
   0.0598391103475622    0.1430919394197791    0.1268985797795376 Si
   0.7464833298433396    0.8890077001698256    0.7737289599627684 Si
   0.5632822697121449    0.2901238502904726    0.4673019106693526 Si
   0.4667845194031514    0.3824947799518514    0.7639774997805404 Si
   0.5823867496878623    0.9935366193562033    0.5298819196422294 Si
   0.5166167600368945    0.6923034303827783    0.8618000299806093 Si
