Sn64
1.0
  13.3055807254134333    0.0000000000000000    0.0000000000000008
   0.0000000000000022   13.3055807254134333    0.0000000000000008
   0.0000000000000000    0.0000000000000000   13.3055807254134333
Sn
64
direct
   0.2501934526050810    0.2493172177513113   -0.0002844694372008 Sn
   0.7495979765108983    0.2506448973282562   -0.0003104035748894 Sn
   0.2503744207748377    0.7515107940713422    0.0009491217035763 Sn
   0.7496699017758550    0.7497396296335065    0.0003422020195538 Sn
   0.2487458926134457    0.2493520872836739    0.5003704542163893 Sn
   0.7499065704844374    0.2514543794272010    0.4995352005540028 Sn
   0.2492132331479411    0.7493313951438730    0.5000105523670758 Sn
   0.7498791261430187    0.7516762587780720    0.4997000388583091 Sn
   0.1250409185923472    0.3756645195226288    0.3749188456606506 Sn
   0.6254175743965766    0.3752967977453219    0.3756292134405290 Sn
   0.1239418889716647    0.8756071508116079    0.3748960709438432 Sn
   0.6251406767500020    0.8747094015334672    0.3762468818641062 Sn
   0.1234614958389734    0.3760516767476623    0.8744896824609051 Sn
   0.6261491307039876    0.3759178223697677    0.8757628291750121 Sn
   0.1256223929638547    0.8767032647841381    0.8745528525342773 Sn
   0.6245631385435000    0.8745070533487268    0.8756953088876385 Sn
   0.2490235966613848    0.0007599569594730    0.2497832186443273 Sn
   0.7491975449344229   -0.0008098864076621    0.2494011732524402 Sn
   0.2488831433873291    0.5003864008465949    0.2506401756390957 Sn
   0.7507205047694329    0.4995291569289190    0.2502314299685450 Sn
   0.2500039124071644    0.0005197307219532    0.7503343425351046 Sn
   0.7500678508772778   -0.0013966642551653    0.7498748043791876 Sn
   0.2500833308086476    0.4994778336561561    0.7497976972433643 Sn
   0.7490235487072509    0.4997586685964865    0.7503801929074725 Sn
   0.1265700626784473    0.1242388838370158    0.1249819819436939 Sn
   0.6242773941477037    0.1249304305532567    0.1248318509460426 Sn
   0.1256259720483365    0.6257321135382914    0.1251223683212767 Sn
   0.6249139518804425    0.6258917073648281    0.1251351249934697 Sn
   0.1261397034439370    0.1237719198031641    0.6263392657846134 Sn
   0.6245357378880071    0.1241835010321769    0.6249663649945626 Sn
   0.1241254027586142    0.6254275946362248    0.6246522933759240 Sn
   0.6252159658497909    0.6242654670765541    0.6248328248401732 Sn
   0.0000728504601795    0.2498584170411137    0.2511961914261532 Sn
   0.5004402745279326    0.2501530751616320    0.2486047052445801 Sn
   0.0002842337091294    0.7509290389804714    0.2494814417966611 Sn
   0.4998509236866056    0.7477259618085338    0.2490638317491602 Sn
  -0.0015662897505352    0.2500782541164053    0.7498870898631396 Sn
   0.4999204720896485    0.2496716008508060    0.7507659465131941 Sn
  -0.0009265309434983    0.7499442906402741    0.7504482248426877 Sn
   0.4998651749473899    0.7499317616647870    0.7493798995730118 Sn
   0.3747482488979561    0.3755398868507389    0.1234822442354421 Sn
   0.8748812310020189    0.3745609247426861    0.1249471601434275 Sn
   0.3763326597813497    0.8746643293503648    0.1261193608226092 Sn
   0.8758269527982881    0.8750224690064803    0.1250654656213165 Sn
   0.3751362097197648    0.3743798303026254    0.6254711096643116 Sn
   0.8745395181467515    0.3750268626648131    0.6233495928086034 Sn
   0.3743511875151157    0.8754021615997695    0.6241556450497004 Sn
   0.8752509962545894    0.8746187836775549    0.6257441615601467 Sn
   0.0009454258290805    0.0001334965548518   -0.0000111738200414 Sn
   0.5000303903415880   -0.0000161171241500    0.0008956065936456 Sn
   0.0018825669747117    0.4989978181679601   -0.0007728130586014 Sn
   0.5010245097092854    0.4991415071487177   -0.0010311654133907 Sn
   0.0015898377373910   -0.0002061352233813    0.4998119996199313 Sn
   0.4996175812161582    0.0004369149617785    0.4991484023854389 Sn
   0.0013335676669852    0.5005659627637029    0.4999610687929847 Sn
   0.4995853577451097    0.5000813620557373    0.5007846103623500 Sn
   0.3769671765424240    0.1261339365079175    0.3757612613894694 Sn
   0.8750323516435966    0.1259263065145925    0.3747396499648628 Sn
   0.3752494317161263    0.6258798533130909    0.3754560294693186 Sn
   0.8745004404494010    0.6238480218148814    0.3753769069685884 Sn
   0.3751011879469250    0.1256989471468796    0.8750435076551396 Sn
   0.8747147184768812    0.1257921135691466    0.8757487935879277 Sn
   0.3734148054402405    0.6238582868826312    0.8750975790747180 Sn
   0.8749509695449562    0.6248594687043967    0.8756192382844804 Sn
