Sn64
1.0
  13.3055807254134333    0.0000000000000000    0.0000000000000008
   0.0000000000000022   13.3055807254134333    0.0000000000000008
   0.0000000000000000    0.0000000000000000   13.3055807254134333
Sn
64
direct
   0.2503733126447180    0.2498960854817054    0.0004867796088476 Sn
   0.7511446549292652    0.2498240186734006   -0.0001759689875858 Sn
   0.2511868800378561    0.7505767765759274   -0.0003528402071458 Sn
   0.7504077687812226    0.7496517117874252   -0.0003500258749930 Sn
   0.2501818502150033    0.2485620467951440    0.4987036132671621 Sn
   0.7495774047440357    0.2492387922472261    0.5002361770892082 Sn
   0.2493175614847184    0.7489385629004244    0.5011015293501037 Sn
   0.7498303145836730    0.7500507517906069    0.4989292100693567 Sn
   0.1245908613567799    0.3750833654629580    0.3741349542713128 Sn
   0.6252823612333042    0.3745485813792617    0.3747807733793715 Sn
   0.1245477787669349    0.8763921062317642    0.3749898559671941 Sn
   0.6242050621834674    0.8756181954242194    0.3740824574476188 Sn
   0.1251569744299893    0.3735271818161707    0.8740017827283844 Sn
   0.6251479538848635    0.3755550051480165    0.8751287942891984 Sn
   0.1249130828749419    0.8747737011996671    0.8738887955957132 Sn
   0.6244589907624101    0.8746538003259940    0.8757944953685487 Sn
   0.2502582512531093   -0.0013250381112606    0.2502435699546551 Sn
   0.7497105858899636   -0.0005087504365841    0.2504597140864905 Sn
   0.2507748624759585    0.5006999169283438    0.2493692740358038 Sn
   0.7497676070047357    0.5002489657822833    0.2507331849298837 Sn
   0.2496398697300524   -0.0001395346663143    0.7491685180851272 Sn
   0.7491009737577287    0.0006106654336720    0.7510193016423407 Sn
   0.2499458797604806    0.5007542195403583    0.7502717927405882 Sn
   0.7495151509972257    0.5002716120498357    0.7511559334374099 Sn
   0.1249730744265513    0.1261759303769625    0.1230310929991308 Sn
   0.6256177126134791    0.1250654214724141    0.1247752767379069 Sn
   0.1250689641274809    0.6235062140799277    0.1248349024425383 Sn
   0.6252683930742156    0.6261107324627468    0.1246104865853140 Sn
   0.1243923650387172    0.1246228972985552    0.6256879835886860 Sn
   0.6252470776108492    0.1246018511219467    0.6253857534997576 Sn
   0.1250729600243322    0.6257279990332799    0.6244723619296555 Sn
   0.6247537408149560    0.6247053054945709    0.6239000743535104 Sn
   0.0002225534406770    0.2501961998334137    0.2500038430916681 Sn
   0.4998236926758658    0.2489362578219926    0.2496838579755020 Sn
  -0.0002575720095194    0.7493970370134321    0.2498787834105144 Sn
   0.5003036702156434    0.7514175900624975    0.2501312064587293 Sn
   0.0001935656894936    0.2499440491044303    0.7485579199774166 Sn
   0.4999800731166898    0.2500452668779996    0.7518512849332316 Sn
  -0.0001445716415923    0.7502266322294056    0.7499739118717015 Sn
   0.4991216632616513    0.7508589048746532    0.7505651260536498 Sn
   0.3755945114034235    0.3743165368174741    0.1260542901808538 Sn
   0.8739464187308150    0.3754410608645434    0.1266462683373348 Sn
   0.3742555482202751    0.8745743908204464    0.1250748944124606 Sn
   0.8746216056521650    0.8738345766614273    0.1250515294869280 Sn
   0.3742016104102115    0.3753559351826942    0.6243089935319566 Sn
   0.8761648754285913    0.3744113347560695    0.6247579500490418 Sn
   0.3756114105307827    0.8740749262720393    0.6251709507756920 Sn
   0.8759824018817803    0.8737918729232983    0.6251387642240821 Sn
   0.0001953186408107    0.0005875901908468   -0.0009296480449858 Sn
   0.4990075918967128    0.0003922726684300    0.0002232030900132 Sn
   0.0001882614938162    0.5002603781200134   -0.0005110823312504 Sn
   0.5001745535966855    0.5002202628200504   -0.0005368810522204 Sn
   0.0014022495895885    0.0003561159266102    0.4991046587730461 Sn
   0.5004934422797345   -0.0007325359864720    0.5005915447209599 Sn
   0.0008707591219935    0.4993832044348247    0.5007240391450215 Sn
   0.5003102314250351    0.5006178311018206    0.5014255619666650 Sn
   0.3748155750424826    0.1244335187768860    0.3743314726745249 Sn
   0.8743868660813826    0.1249420531046294    0.3752563976588899 Sn
   0.3752079509380614    0.6256216814328562    0.3750097717582917 Sn
   0.8760924243797803    0.6248010933617257    0.3770443821451507 Sn
   0.3754702292674607    0.1243557909465920    0.8741951553861790 Sn
   0.8753626090624678    0.1248320533391684    0.8755366173103053 Sn
   0.3753556685231106    0.6249452643863054    0.8743635800379228 Sn
   0.8738614948449471    0.6246644152846226    0.8756436387948766 Sn
