Li256 Cl256
1.0
  20.2440765785539547    0.0000000000000000    0.0000000000000012
   0.0000000000000032   20.2440765785539547    0.0000000000000012
   0.0000000000000000    0.0000000000000000   20.2440765785539547
Li Cl
256 256
direct
   0.0004939716544342    0.0000000000000000    0.0000000000000000 Li
   0.2500000000000000    0.0000000000000000    0.0000000000000000 Li
   0.4999999999999999    0.0000000000000000    0.0000000000000000 Li
   0.7499999999999999    0.0000000000000000    0.0000000000000000 Li
   0.0000000000000000    0.2500000000000000    0.0000000000000000 Li
   0.2500000000000000    0.2500000000000000    0.0000000000000000 Li
   0.4999999999999999    0.2500000000000000    0.0000000000000000 Li
   0.7499999999999999    0.2500000000000000    0.0000000000000000 Li
   0.0000000000000000    0.4999999999999999    0.0000000000000000 Li
   0.2500000000000000    0.4999999999999999    0.0000000000000000 Li
   0.5000000000000000    0.4999999999999999    0.0000000000000000 Li
   0.7499999999999999    0.4999999999999999    0.0000000000000000 Li
   0.0000000000000000    0.7499999999999999    0.0000000000000000 Li
   0.2500000000000000    0.7499999999999999    0.0000000000000000 Li
   0.5000000000000000    0.7499999999999999    0.0000000000000000 Li
   0.7499999999999999    0.7499999999999999    0.0000000000000000 Li
   0.0000000000000000    0.0000000000000000    0.2500000000000000 Li
   0.2500000000000000    0.0000000000000000    0.2500000000000000 Li
   0.4999999999999999    0.0000000000000000    0.2500000000000000 Li
   0.7499999999999999    0.0000000000000000    0.2500000000000000 Li
   0.0000000000000000    0.2500000000000000    0.2500000000000000 Li
   0.2500000000000000    0.2500000000000000    0.2500000000000000 Li
   0.4999999999999999    0.2500000000000000    0.2500000000000000 Li
   0.7499999999999999    0.2500000000000000    0.2500000000000000 Li
   0.0000000000000000    0.4999999999999999    0.2500000000000000 Li
   0.2500000000000000    0.4999999999999999    0.2500000000000000 Li
   0.5000000000000000    0.4999999999999999    0.2500000000000000 Li
   0.7499999999999999    0.4999999999999999    0.2500000000000000 Li
   0.0000000000000000    0.7499999999999999    0.2500000000000000 Li
   0.2500000000000000    0.7499999999999999    0.2500000000000000 Li
   0.5000000000000000    0.7499999999999999    0.2500000000000000 Li
   0.7499999999999999    0.7499999999999999    0.2500000000000000 Li
   0.0000000000000000    0.0000000000000000    0.4999999999999999 Li
   0.2500000000000000    0.0000000000000000    0.4999999999999999 Li
   0.4999999999999999    0.0000000000000000    0.4999999999999999 Li
   0.7499999999999999    0.0000000000000000    0.5000000000000000 Li
   0.0000000000000000    0.2500000000000000    0.4999999999999999 Li
   0.2500000000000000    0.2500000000000000    0.4999999999999999 Li
   0.4999999999999999    0.2500000000000000    0.5000000000000000 Li
   0.7499999999999999    0.2500000000000000    0.5000000000000000 Li
   0.0000000000000000    0.4999999999999999    0.4999999999999999 Li
   0.2500000000000000    0.4999999999999999    0.5000000000000000 Li
   0.5000000000000000    0.4999999999999999    0.5000000000000000 Li
   0.7499999999999999    0.4999999999999999    0.5000000000000000 Li
   0.0000000000000000    0.7499999999999999    0.5000000000000000 Li
   0.2500000000000000    0.7499999999999999    0.5000000000000000 Li
   0.5000000000000000    0.7499999999999999    0.5000000000000000 Li
   0.7499999999999999    0.7499999999999999    0.4999999999999999 Li
   0.0000000000000000    0.0000000000000000    0.7499999999999999 Li
   0.2500000000000000    0.0000000000000000    0.7500000000000000 Li
   0.4999999999999999    0.0000000000000000    0.7500000000000000 Li
   0.7499999999999999    0.0000000000000000    0.7500000000000000 Li
   0.0000000000000000    0.2500000000000000    0.7500000000000000 Li
   0.2500000000000000    0.2500000000000000    0.7500000000000000 Li
   0.4999999999999999    0.2500000000000000    0.7500000000000000 Li
   0.7499999999999999    0.2500000000000000    0.7499999999999999 Li
   0.0000000000000000    0.4999999999999999    0.7500000000000000 Li
   0.2500000000000000    0.4999999999999999    0.7500000000000000 Li
   0.5000000000000000    0.4999999999999999    0.7499999999999999 Li
   0.7499999999999999    0.4999999999999999    0.7499999999999999 Li
   0.0000000000000000    0.7499999999999999    0.7500000000000000 Li
   0.2500000000000000    0.7499999999999999    0.7499999999999999 Li
   0.5000000000000000    0.7499999999999999    0.7499999999999999 Li
   0.7499999999999999    0.7499999999999999    0.7500000000000000 Li
   0.0000000000000000    0.1250000000000000    0.1250000000000000 Li
   0.2499999999999999    0.1250000000000000    0.1250000000000000 Li
   0.4999999999999999    0.1250000000000000    0.1250000000000000 Li
   0.7499999999999999    0.1250000000000000    0.1250000000000000 Li
   0.0000000000000000    0.3749999999999999    0.1250000000000000 Li
   0.2500000000000000    0.3749999999999999    0.1250000000000000 Li
   0.5000000000000000    0.3749999999999999    0.1250000000000000 Li
   0.7499999999999999    0.3749999999999999    0.1250000000000000 Li
   0.0000000000000000    0.6250000000000000    0.1250000000000000 Li
   0.2499999999999999    0.6250000000000000    0.1250000000000000 Li
   0.5000000000000000    0.6250000000000000    0.1250000000000000 Li
   0.7499999999999999    0.6250000000000000    0.1250000000000000 Li
  -0.0000000000000000    0.8750000000000000    0.1250000000000000 Li
   0.2500000000000000    0.8750000000000000    0.1250000000000000 Li
   0.5000000000000000    0.8750000000000000    0.1250000000000000 Li
   0.7500000000000000    0.8750000000000000    0.1250000000000000 Li
   0.0000000000000000    0.1250000000000000    0.3750000000000000 Li
   0.2499999999999999    0.1250000000000000    0.3750000000000000 Li
   0.4999999999999999    0.1250000000000000    0.3749999999999999 Li
   0.7499999999999999    0.1250000000000000    0.3750000000000000 Li
   0.0000000000000000    0.3749999999999999    0.3750000000000000 Li
   0.2500000000000000    0.3749999999999999    0.3749999999999999 Li
   0.5000000000000000    0.3749999999999999    0.3750000000000000 Li
   0.7499999999999999    0.3749999999999999    0.3750000000000000 Li
   0.0000000000000000    0.6250000000000000    0.3749999999999999 Li
   0.2499999999999999    0.6250000000000000    0.3750000000000000 Li
   0.5000000000000000    0.6250000000000000    0.3750000000000000 Li
   0.7499999999999999    0.6250000000000000    0.3749999999999999 Li
  -0.0000000000000000    0.8750000000000000    0.3750000000000000 Li
   0.2500000000000000    0.8750000000000000    0.3750000000000000 Li
   0.5000000000000000    0.8750000000000000    0.3749999999999999 Li
   0.7500000000000000    0.8750000000000000    0.3750000000000000 Li
   0.0000000000000000    0.1250000000000000    0.6250000000000000 Li
   0.2499999999999999    0.1250000000000000    0.6250000000000000 Li
   0.4999999999999999    0.1250000000000000    0.6250000000000000 Li
   0.7499999999999999    0.1250000000000000    0.6249999999999999 Li
   0.0000000000000000    0.3749999999999999    0.6250000000000000 Li
   0.2500000000000000    0.3749999999999999    0.6250000000000000 Li
   0.5000000000000000    0.3749999999999999    0.6249999999999999 Li
   0.7499999999999999    0.3749999999999999    0.6250000000000000 Li
   0.0000000000000000    0.6250000000000000    0.6250000000000000 Li
   0.2499999999999999    0.6250000000000000    0.6249999999999999 Li
   0.5000000000000000    0.6250000000000000    0.6250000000000000 Li
   0.7499999999999999    0.6250000000000000    0.6250000000000000 Li
  -0.0000000000000000    0.8750000000000000    0.6249999999999999 Li
   0.2500000000000000    0.8750000000000000    0.6250000000000000 Li
   0.5000000000000000    0.8750000000000000    0.6250000000000000 Li
   0.7500000000000000    0.8750000000000000    0.6250000000000000 Li
   0.0000000000000000    0.1250000000000000    0.8750000000000000 Li
   0.2499999999999999    0.1250000000000000    0.8750000000000000 Li
   0.4999999999999999    0.1250000000000000    0.8750000000000000 Li
   0.7499999999999999    0.1250000000000000    0.8750000000000000 Li
   0.0000000000000000    0.3749999999999999    0.8750000000000000 Li
   0.2500000000000000    0.3749999999999999    0.8750000000000000 Li
   0.5000000000000000    0.3749999999999999    0.8750000000000000 Li
   0.7499999999999999    0.3749999999999999    0.8750000000000000 Li
   0.0000000000000000    0.6250000000000000    0.8750000000000000 Li
   0.2499999999999999    0.6250000000000000    0.8750000000000000 Li
   0.5000000000000000    0.6250000000000000    0.8750000000000000 Li
   0.7499999999999999    0.6250000000000000    0.8749999999999999 Li
  -0.0000000000000000    0.8750000000000000    0.8750000000000000 Li
   0.2500000000000000    0.8750000000000000    0.8750000000000000 Li
   0.5000000000000000    0.8750000000000000    0.8749999999999999 Li
   0.7500000000000000    0.8750000000000000    0.8749999999999999 Li
   0.1250000000000000    0.0000000000000000    0.1250000000000000 Li
   0.3749999999999999    0.0000000000000000    0.1250000000000000 Li
   0.6250000000000000    0.0000000000000000    0.1250000000000000 Li
   0.8750000000000000    0.0000000000000000    0.1250000000000000 Li
   0.1250000000000000    0.2500000000000000    0.1250000000000000 Li
   0.3749999999999999    0.2500000000000000    0.1250000000000000 Li
   0.6250000000000000    0.2500000000000000    0.1250000000000000 Li
   0.8750000000000000    0.2500000000000000    0.1250000000000000 Li
   0.1250000000000000    0.4999999999999999    0.1250000000000000 Li
   0.3750000000000000    0.4999999999999999    0.1250000000000000 Li
   0.6250000000000000    0.4999999999999999    0.1250000000000000 Li
   0.8749999999999999    0.4999999999999999    0.1250000000000000 Li
   0.1250000000000000    0.7499999999999999    0.1250000000000000 Li
   0.3750000000000000    0.7499999999999999    0.1250000000000000 Li
   0.6250000000000000    0.7499999999999999    0.1250000000000000 Li
   0.8750000000000001    0.7499999999999999    0.1250000000000000 Li
   0.1250000000000000    0.0000000000000000    0.3750000000000000 Li
   0.3749999999999999    0.0000000000000000    0.3750000000000000 Li
   0.6250000000000000    0.0000000000000000    0.3749999999999999 Li
   0.8750000000000000    0.0000000000000000    0.3750000000000000 Li
   0.1250000000000000    0.2500000000000000    0.3750000000000000 Li
   0.3749999999999999    0.2500000000000000    0.3749999999999999 Li
   0.6250000000000000    0.2500000000000000    0.3750000000000000 Li
   0.8750000000000000    0.2500000000000000    0.3750000000000000 Li
   0.1250000000000000    0.4999999999999999    0.3749999999999999 Li
   0.3750000000000000    0.4999999999999999    0.3750000000000000 Li
   0.6250000000000000    0.4999999999999999    0.3750000000000000 Li
   0.8749999999999999    0.4999999999999999    0.3749999999999999 Li
   0.1250000000000000    0.7499999999999999    0.3750000000000000 Li
   0.3750000000000000    0.7499999999999999    0.3750000000000000 Li
   0.6250000000000000    0.7499999999999999    0.3749999999999999 Li
   0.8750000000000001    0.7499999999999999    0.3750000000000000 Li
   0.1250000000000000    0.0000000000000000    0.6250000000000000 Li
   0.3749999999999999    0.0000000000000000    0.6250000000000000 Li
   0.6250000000000000    0.0000000000000000    0.6250000000000000 Li
   0.8750000000000000    0.0000000000000000    0.6249999999999999 Li
   0.1250000000000000    0.2500000000000000    0.6250000000000000 Li
   0.3749999999999999    0.2500000000000000    0.6250000000000000 Li
   0.6250000000000000    0.2500000000000000    0.6249999999999999 Li
   0.8750000000000000    0.2500000000000000    0.6250000000000000 Li
   0.1250000000000000    0.4999999999999999    0.6250000000000000 Li
   0.3750000000000000    0.4999999999999999    0.6249999999999999 Li
   0.6250000000000000    0.4999999999999999    0.6250000000000000 Li
   0.8749999999999999    0.4999999999999999    0.6250000000000000 Li
   0.1250000000000000    0.7499999999999999    0.6249999999999999 Li
   0.3750000000000000    0.7499999999999999    0.6250000000000000 Li
   0.6250000000000000    0.7499999999999999    0.6250000000000000 Li
   0.8750000000000001    0.7499999999999999    0.6250000000000000 Li
   0.1250000000000000    0.0000000000000000    0.8750000000000000 Li
   0.3749999999999999    0.0000000000000000    0.8750000000000000 Li
   0.6250000000000000    0.0000000000000000    0.8750000000000000 Li
   0.8750000000000000    0.0000000000000000    0.8750000000000000 Li
   0.1250000000000000    0.2500000000000000    0.8750000000000000 Li
   0.3749999999999999    0.2500000000000000    0.8750000000000000 Li
   0.6250000000000000    0.2500000000000000    0.8750000000000000 Li
   0.8750000000000000    0.2500000000000000    0.8750000000000000 Li
   0.1250000000000000    0.4999999999999999    0.8750000000000000 Li
   0.3750000000000000    0.4999999999999999    0.8750000000000000 Li
   0.6250000000000000    0.4999999999999999    0.8750000000000000 Li
   0.8749999999999999    0.4999999999999999    0.8749999999999999 Li
   0.1250000000000000    0.7499999999999999    0.8750000000000000 Li
   0.3750000000000000    0.7499999999999999    0.8750000000000000 Li
   0.6250000000000000    0.7499999999999999    0.8749999999999999 Li
   0.8750000000000001    0.7499999999999999    0.8749999999999999 Li
   0.1250000000000000    0.1250000000000000    0.0000000000000000 Li
   0.3749999999999999    0.1250000000000000    0.0000000000000000 Li
   0.6250000000000000    0.1250000000000000    0.0000000000000000 Li
   0.8750000000000000    0.1250000000000000    0.0000000000000000 Li
   0.1250000000000000    0.3749999999999999    0.0000000000000000 Li
   0.3749999999999999    0.3749999999999999    0.0000000000000000 Li
   0.6250000000000000    0.3749999999999999    0.0000000000000000 Li
   0.8749999999999999    0.3749999999999999    0.0000000000000000 Li
   0.1250000000000000    0.6250000000000000    0.0000000000000000 Li
   0.3749999999999999    0.6250000000000000    0.0000000000000000 Li
   0.6250000000000000    0.6250000000000000    0.0000000000000000 Li
   0.8750000000000001    0.6250000000000000    0.0000000000000000 Li
   0.1250000000000000    0.8750000000000000    0.0000000000000000 Li
   0.3750000000000000    0.8750000000000000    0.0000000000000000 Li
   0.6250000000000000    0.8750000000000000    0.0000000000000000 Li
   0.8750000000000001    0.8750000000000000   -0.0000000000000000 Li
   0.1250000000000000    0.1250000000000000    0.2500000000000000 Li
   0.3749999999999999    0.1250000000000000    0.2500000000000000 Li
   0.6250000000000000    0.1250000000000000    0.2500000000000000 Li
   0.8750000000000000    0.1250000000000000    0.2500000000000000 Li
   0.1250000000000000    0.3749999999999999    0.2500000000000000 Li
   0.3749999999999999    0.3749999999999999    0.2500000000000000 Li
   0.6250000000000000    0.3749999999999999    0.2500000000000000 Li
   0.8749999999999999    0.3749999999999999    0.2500000000000000 Li
   0.1250000000000000    0.6250000000000000    0.2500000000000000 Li
   0.3749999999999999    0.6250000000000000    0.2500000000000000 Li
   0.6250000000000000    0.6250000000000000    0.2500000000000000 Li
   0.8750000000000001    0.6250000000000000    0.2500000000000000 Li
   0.1250000000000000    0.8750000000000000    0.2500000000000000 Li
   0.3750000000000000    0.8750000000000000    0.2500000000000000 Li
   0.6250000000000000    0.8750000000000000    0.2500000000000000 Li
   0.8750000000000001    0.8750000000000000    0.2500000000000000 Li
   0.1250000000000000    0.1250000000000000    0.4999999999999999 Li
   0.3749999999999999    0.1250000000000000    0.4999999999999999 Li
   0.6250000000000000    0.1250000000000000    0.5000000000000000 Li
   0.8750000000000000    0.1250000000000000    0.5000000000000000 Li
   0.1250000000000000    0.3749999999999999    0.4999999999999999 Li
   0.3749999999999999    0.3749999999999999    0.5000000000000000 Li
   0.6250000000000000    0.3749999999999999    0.5000000000000000 Li
   0.8749999999999999    0.3749999999999999    0.5000000000000000 Li
   0.1250000000000000    0.6250000000000000    0.5000000000000000 Li
   0.3749999999999999    0.6250000000000000    0.5000000000000000 Li
   0.6250000000000000    0.6250000000000000    0.5000000000000000 Li
   0.8750000000000001    0.6250000000000000    0.4999999999999999 Li
   0.1250000000000000    0.8750000000000000    0.5000000000000000 Li
   0.3750000000000000    0.8750000000000000    0.5000000000000000 Li
   0.6250000000000000    0.8750000000000000    0.4999999999999999 Li
   0.8750000000000001    0.8750000000000000    0.4999999999999999 Li
   0.1250000000000000    0.1250000000000000    0.7500000000000000 Li
   0.3749999999999999    0.1250000000000000    0.7500000000000000 Li
   0.6250000000000000    0.1250000000000000    0.7500000000000000 Li
   0.8750000000000000    0.1250000000000000    0.7499999999999999 Li
   0.1250000000000000    0.3749999999999999    0.7500000000000000 Li
   0.3749999999999999    0.3749999999999999    0.7500000000000000 Li
   0.6250000000000000    0.3749999999999999    0.7499999999999999 Li
   0.8749999999999999    0.3749999999999999    0.7499999999999999 Li
   0.1250000000000000    0.6250000000000000    0.7500000000000000 Li
   0.3749999999999999    0.6250000000000000    0.7499999999999999 Li
   0.6250000000000000    0.6250000000000000    0.7499999999999999 Li
   0.8750000000000001    0.6250000000000000    0.7500000000000000 Li
   0.1250000000000000    0.8750000000000000    0.7499999999999999 Li
   0.3750000000000000    0.8750000000000000    0.7499999999999999 Li
   0.6250000000000000    0.8750000000000000    0.7500000000000000 Li
   0.8750000000000001    0.8750000000000000    0.7500000000000000 Li
   0.1250000000000000    0.0000000000000000    0.0000000000000000 Cl
   0.3749999999999999    0.0000000000000000    0.0000000000000000 Cl
   0.6250000000000000    0.0000000000000000    0.0000000000000000 Cl
   0.8750000000000000    0.0000000000000000   -0.0000000000000000 Cl
   0.1250000000000000    0.2500000000000000    0.0000000000000000 Cl
   0.3749999999999999    0.2500000000000000    0.0000000000000000 Cl
   0.6250000000000000    0.2500000000000000    0.0000000000000000 Cl
   0.8750000000000000    0.2500000000000000   -0.0000000000000000 Cl
   0.1250000000000000    0.4999999999999999    0.0000000000000000 Cl
   0.3750000000000000    0.4999999999999999    0.0000000000000000 Cl
   0.6250000000000000    0.4999999999999999   -0.0000000000000000 Cl
   0.8749999999999999    0.4999999999999999    0.0000000000000000 Cl
   0.1250000000000000    0.7499999999999999    0.0000000000000000 Cl
   0.3750000000000000    0.7499999999999999    0.0000000000000000 Cl
   0.6250000000000000    0.7499999999999999    0.0000000000000000 Cl
   0.8750000000000001    0.7499999999999999   -0.0000000000000000 Cl
   0.1250000000000000    0.0000000000000000    0.2500000000000000 Cl
   0.3749999999999999    0.0000000000000000    0.2500000000000000 Cl
   0.6250000000000000    0.0000000000000000    0.2500000000000000 Cl
   0.8750000000000000    0.0000000000000000    0.2500000000000000 Cl
   0.1250000000000000    0.2500000000000000    0.2500000000000000 Cl
   0.3749999999999999    0.2500000000000000    0.2500000000000000 Cl
   0.6250000000000000    0.2500000000000000    0.2500000000000000 Cl
   0.8750000000000000    0.2500000000000000    0.2500000000000000 Cl
   0.1250000000000000    0.4999999999999999    0.2500000000000000 Cl
   0.3750000000000000    0.4999999999999999    0.2500000000000000 Cl
   0.6250000000000000    0.4999999999999999    0.2500000000000000 Cl
   0.8749999999999999    0.4999999999999999    0.2500000000000000 Cl
   0.1250000000000000    0.7499999999999999    0.2500000000000000 Cl
   0.3750000000000000    0.7499999999999999    0.2500000000000000 Cl
   0.6250000000000000    0.7499999999999999    0.2500000000000000 Cl
   0.8750000000000001    0.7499999999999999    0.2500000000000000 Cl
   0.1250000000000000    0.0000000000000000    0.4999999999999999 Cl
   0.3749999999999999    0.0000000000000000    0.4999999999999999 Cl
   0.6250000000000000    0.0000000000000000    0.4999999999999999 Cl
   0.8750000000000000    0.0000000000000000    0.5000000000000000 Cl
   0.1250000000000000    0.2500000000000000    0.4999999999999999 Cl
   0.3749999999999999    0.2500000000000000    0.4999999999999999 Cl
   0.6250000000000000    0.2500000000000000    0.5000000000000000 Cl
   0.8750000000000000    0.2500000000000000    0.5000000000000000 Cl
   0.1250000000000000    0.4999999999999999    0.4999999999999999 Cl
   0.3750000000000000    0.4999999999999999    0.5000000000000000 Cl
   0.6250000000000000    0.4999999999999999    0.5000000000000000 Cl
   0.8749999999999999    0.4999999999999999    0.5000000000000000 Cl
   0.1250000000000000    0.7499999999999999    0.5000000000000000 Cl
   0.3750000000000000    0.7499999999999999    0.5000000000000000 Cl
   0.6250000000000000    0.7499999999999999    0.5000000000000000 Cl
   0.8750000000000001    0.7499999999999999    0.4999999999999999 Cl
   0.1250000000000000    0.0000000000000000    0.7500000000000000 Cl
   0.3749999999999999    0.0000000000000000    0.7500000000000000 Cl
   0.6250000000000000    0.0000000000000000    0.7500000000000000 Cl
   0.8750000000000000    0.0000000000000000    0.7500000000000000 Cl
   0.1250000000000000    0.2500000000000000    0.7500000000000000 Cl
   0.3749999999999999    0.2500000000000000    0.7500000000000000 Cl
   0.6250000000000000    0.2500000000000000    0.7500000000000000 Cl
   0.8750000000000000    0.2500000000000000    0.7499999999999999 Cl
   0.1250000000000000    0.4999999999999999    0.7500000000000000 Cl
   0.3750000000000000    0.4999999999999999    0.7500000000000000 Cl
   0.6250000000000000    0.4999999999999999    0.7499999999999999 Cl
   0.8749999999999999    0.4999999999999999    0.7499999999999999 Cl
   0.1250000000000000    0.7499999999999999    0.7500000000000000 Cl
   0.3750000000000000    0.7499999999999999    0.7499999999999999 Cl
   0.6250000000000000    0.7499999999999999    0.7499999999999999 Cl
   0.8750000000000001    0.7499999999999999    0.7500000000000000 Cl
   0.1250000000000000    0.1250000000000000    0.1250000000000000 Cl
   0.3749999999999999    0.1250000000000000    0.1250000000000000 Cl
   0.6250000000000000    0.1250000000000000    0.1250000000000000 Cl
   0.8750000000000000    0.1250000000000000    0.1250000000000000 Cl
   0.1250000000000000    0.3749999999999999    0.1250000000000000 Cl
   0.3749999999999999    0.3749999999999999    0.1250000000000000 Cl
   0.6250000000000000    0.3749999999999999    0.1250000000000000 Cl
   0.8749999999999999    0.3749999999999999    0.1250000000000000 Cl
   0.1250000000000000    0.6250000000000000    0.1250000000000000 Cl
   0.3749999999999999    0.6250000000000000    0.1250000000000000 Cl
   0.6250000000000000    0.6250000000000000    0.1250000000000000 Cl
   0.8750000000000001    0.6250000000000000    0.1250000000000000 Cl
   0.1250000000000000    0.8750000000000000    0.1250000000000000 Cl
   0.3750000000000000    0.8750000000000000    0.1250000000000000 Cl
   0.6250000000000000    0.8750000000000000    0.1250000000000000 Cl
   0.8750000000000001    0.8750000000000000    0.1250000000000000 Cl
   0.1250000000000000    0.1250000000000000    0.3750000000000000 Cl
   0.3749999999999999    0.1250000000000000    0.3749999999999999 Cl
   0.6250000000000000    0.1250000000000000    0.3750000000000000 Cl
   0.8750000000000000    0.1250000000000000    0.3750000000000000 Cl
   0.1250000000000000    0.3749999999999999    0.3749999999999999 Cl
   0.3749999999999999    0.3749999999999999    0.3750000000000000 Cl
   0.6250000000000000    0.3749999999999999    0.3750000000000000 Cl
   0.8749999999999999    0.3749999999999999    0.3749999999999999 Cl
   0.1250000000000000    0.6250000000000000    0.3750000000000000 Cl
   0.3749999999999999    0.6250000000000000    0.3750000000000000 Cl
   0.6250000000000000    0.6250000000000000    0.3749999999999999 Cl
   0.8750000000000001    0.6250000000000000    0.3750000000000000 Cl
   0.1250000000000000    0.8750000000000000    0.3750000000000000 Cl
   0.3750000000000000    0.8750000000000000    0.3749999999999999 Cl
   0.6250000000000000    0.8750000000000000    0.3750000000000000 Cl
   0.8750000000000001    0.8750000000000000    0.3750000000000000 Cl
   0.1250000000000000    0.1250000000000000    0.6250000000000000 Cl
   0.3749999999999999    0.1250000000000000    0.6250000000000000 Cl
   0.6250000000000000    0.1250000000000000    0.6249999999999999 Cl
   0.8750000000000000    0.1250000000000000    0.6249999999999999 Cl
   0.1250000000000000    0.3749999999999999    0.6250000000000000 Cl
   0.3749999999999999    0.3749999999999999    0.6249999999999999 Cl
   0.6250000000000000    0.3749999999999999    0.6249999999999999 Cl
   0.8749999999999999    0.3749999999999999    0.6250000000000000 Cl
   0.1250000000000000    0.6250000000000000    0.6249999999999999 Cl
   0.3749999999999999    0.6250000000000000    0.6249999999999999 Cl
   0.6250000000000000    0.6250000000000000    0.6250000000000000 Cl
   0.8750000000000001    0.6250000000000000    0.6250000000000000 Cl
   0.1250000000000000    0.8750000000000000    0.6249999999999999 Cl
   0.3750000000000000    0.8750000000000000    0.6250000000000000 Cl
   0.6250000000000000    0.8750000000000000    0.6250000000000000 Cl
   0.8750000000000001    0.8750000000000000    0.6250000000000000 Cl
   0.1250000000000000    0.1250000000000000    0.8750000000000000 Cl
   0.3749999999999999    0.1250000000000000    0.8750000000000000 Cl
   0.6250000000000000    0.1250000000000000    0.8750000000000000 Cl
   0.8750000000000000    0.1250000000000000    0.8750000000000000 Cl
   0.1250000000000000    0.3749999999999999    0.8750000000000000 Cl
   0.3749999999999999    0.3749999999999999    0.8750000000000000 Cl
   0.6250000000000000    0.3749999999999999    0.8750000000000000 Cl
   0.8749999999999999    0.3749999999999999    0.8749999999999999 Cl
   0.1250000000000000    0.6250000000000000    0.8750000000000000 Cl
   0.3749999999999999    0.6250000000000000    0.8750000000000000 Cl
   0.6250000000000000    0.6250000000000000    0.8749999999999999 Cl
   0.8750000000000001    0.6250000000000000    0.8749999999999999 Cl
   0.1250000000000000    0.8750000000000000    0.8750000000000000 Cl
   0.3750000000000000    0.8750000000000000    0.8749999999999999 Cl
   0.6250000000000000    0.8750000000000000    0.8749999999999999 Cl
   0.8750000000000001    0.8750000000000000    0.8749999999999999 Cl
   0.0000000000000000    0.0000000000000000    0.1250000000000000 Cl
   0.2500000000000000    0.0000000000000000    0.1250000000000000 Cl
   0.4999999999999999    0.0000000000000000    0.1250000000000000 Cl
   0.7499999999999999    0.0000000000000000    0.1250000000000000 Cl
   0.0000000000000000    0.2500000000000000    0.1250000000000000 Cl
   0.2500000000000000    0.2500000000000000    0.1250000000000000 Cl
   0.4999999999999999    0.2500000000000000    0.1250000000000000 Cl
   0.7499999999999999    0.2500000000000000    0.1250000000000000 Cl
   0.0000000000000000    0.4999999999999999    0.1250000000000000 Cl
   0.2500000000000000    0.4999999999999999    0.1250000000000000 Cl
   0.5000000000000000    0.4999999999999999    0.1250000000000000 Cl
   0.7499999999999999    0.4999999999999999    0.1250000000000000 Cl
   0.0000000000000000    0.7499999999999999    0.1250000000000000 Cl
   0.2500000000000000    0.7499999999999999    0.1250000000000000 Cl
   0.5000000000000000    0.7499999999999999    0.1250000000000000 Cl
   0.7499999999999999    0.7499999999999999    0.1250000000000000 Cl
   0.0000000000000000    0.0000000000000000    0.3749999999999999 Cl
   0.2500000000000000    0.0000000000000000    0.3750000000000000 Cl
   0.4999999999999999    0.0000000000000000    0.3749999999999999 Cl
   0.7499999999999999    0.0000000000000000    0.3750000000000000 Cl
   0.0000000000000000    0.2500000000000000    0.3750000000000000 Cl
   0.2500000000000000    0.2500000000000000    0.3749999999999999 Cl
   0.4999999999999999    0.2500000000000000    0.3750000000000000 Cl
   0.7499999999999999    0.2500000000000000    0.3750000000000000 Cl
   0.0000000000000000    0.4999999999999999    0.3749999999999999 Cl
   0.2500000000000000    0.4999999999999999    0.3750000000000000 Cl
   0.5000000000000000    0.4999999999999999    0.3750000000000000 Cl
   0.7499999999999999    0.4999999999999999    0.3749999999999999 Cl
   0.0000000000000000    0.7499999999999999    0.3750000000000000 Cl
   0.2500000000000000    0.7499999999999999    0.3750000000000000 Cl
   0.5000000000000000    0.7499999999999999    0.3749999999999999 Cl
   0.7499999999999999    0.7499999999999999    0.3750000000000000 Cl
   0.0000000000000000    0.0000000000000000    0.6250000000000000 Cl
   0.2500000000000000    0.0000000000000000    0.6250000000000000 Cl
   0.4999999999999999    0.0000000000000000    0.6250000000000000 Cl
   0.7499999999999999    0.0000000000000000    0.6249999999999999 Cl
   0.0000000000000000    0.2500000000000000    0.6250000000000000 Cl
   0.2500000000000000    0.2500000000000000    0.6250000000000000 Cl
   0.4999999999999999    0.2500000000000000    0.6249999999999999 Cl
   0.7499999999999999    0.2500000000000000    0.6249999999999999 Cl
   0.0000000000000000    0.4999999999999999    0.6250000000000000 Cl
   0.2500000000000000    0.4999999999999999    0.6249999999999999 Cl
   0.5000000000000000    0.4999999999999999    0.6249999999999999 Cl
   0.7499999999999999    0.4999999999999999    0.6250000000000000 Cl
   0.0000000000000000    0.7499999999999999    0.6249999999999999 Cl
   0.2500000000000000    0.7499999999999999    0.6249999999999999 Cl
   0.5000000000000000    0.7499999999999999    0.6250000000000000 Cl