Li32 Cl32
1.0
  10.0369751223505350    0.0000000000000000    0.0000000000000006
   0.0000000000000016   10.0369751223505350    0.0000000000000006
   0.0000000000000000    0.0000000000000000   10.0369751223505350
Li Cl
32 32
direct
  -0.0007478495344523    0.0013115080078066    0.0012415493846034 Li
   0.4984009965934012   -0.0014627351976898   -0.0017087523253437 Li
   0.0018519361349949    0.5000872653117081   -0.0000521294471561 Li
   0.5005534253396899    0.4990401453800516   -0.0001796571808559 Li
  -0.0011790496057665    0.0006032155239138    0.4990518552234898 Li
   0.5003595267053867    0.0010567030835207    0.4998832793974433 Li
   0.0008226231912269    0.4987946432694446    0.4988138820692582 Li
   0.5002190618372080    0.4997878652407436    0.4985937006655900 Li
  -0.0004812017661245    0.2511973349218591    0.2492967970689394 Li
   0.5000250885893524    0.2496103127186868    0.2501924276200396 Li
   0.0003480041822232    0.7505890105085634    0.2505184927364535 Li
   0.5008221823597842    0.7504246334199298    0.2501949193092890 Li
  -0.0005122182449904    0.2469376343193128    0.7496062966526013 Li
   0.4992075309799354    0.2492993890060591    0.7482690076882135 Li
   0.0007480423622005    0.7481429134557651    0.7504169692355375 Li
   0.4997655331070450    0.7504305153384567    0.7508670858697787 Li
   0.2520012226417072    0.0013667174532439    0.2510546981274049 Li
   0.7514400130981108    0.0000486434307599    0.2500899967561834 Li
   0.2495215124009908    0.5002995551268485    0.2511088797318466 Li
   0.7499807561083166    0.4999991953767050    0.2493638220422082 Li
   0.2515888087259010    0.0000185444186337    0.7505593405016691 Li
   0.7498022543452939    0.0004615011459157    0.7481876073627860 Li
   0.2501324351386652    0.4993851936160796    0.7513033603134085 Li
   0.7507729796109908    0.4997208617200228    0.7492787291947244 Li
   0.2490601650127588    0.2505596170521530   -0.0006902404687789 Li
   0.7516954904814768    0.2489521518263734   -0.0006587159465248 Li
   0.2489928243341133    0.7485464936447613    0.0003891145774278 Li
   0.7491925413871308    0.7511534071958406    0.0000316461048291 Li
   0.2481100597670529    0.2491382354314276    0.4999430132130311 Li
   0.7512264829183802    0.2494684140474449    0.4996652633504240 Li
   0.2484500073093673    0.7512141494199299    0.4977506741633605 Li
   0.7502202036299883    0.7499450315971627    0.5002801486447358 Li
   0.2505964403355529    0.0010233903634296    0.0000069163978917 Cl
   0.7482531492722645    0.0015435231806483   -0.0006429993210601 Cl
   0.2508760987755634    0.4996827910143659    0.0007246783994608 Cl
   0.7499346599189698    0.4995506093330792    0.0008503859956727 Cl
   0.2474736589175967   -0.0003860560589070    0.4999790026540413 Cl
   0.7503150571968639   -0.0006274953821241    0.4980276114282318 Cl
   0.2502756654430630    0.4987681112172173    0.5005712225356421 Cl
   0.7503173124520662    0.4999215703067791    0.5014717513498935 Cl
   0.2511239731317984    0.2489192866315543    0.2481556924670129 Cl
   0.7513282271757231    0.2522326584486515    0.2492198162901196 Cl
   0.2502426466009792    0.7489936680825666    0.2492849857691254 Cl
   0.7528901617739752    0.7503845143371343    0.2500396734798965 Cl
   0.2501071146601951    0.2487201963593859    0.7503407203384010 Cl
   0.7518250644285384    0.2514440038921313    0.7494738237064849 Cl
   0.2490927119408572    0.7506488031038206    0.7500162879070187 Cl
   0.7498637167716105    0.7492252102323204    0.7507938942875655 Cl
   0.0000381704960133   -0.0000598478420578    0.2500074604123726 Cl
   0.5003833679658676   -0.0010229369922387    0.2489240760487414 Cl
  -0.0025649273796318    0.5003034761791001    0.2518855058437519 Cl
   0.5010125053264483    0.4999564211355557    0.2488466882894428 Cl
  -0.0003941891968917   -0.0006676531286165    0.7503186075042536 Cl
   0.4997055083661847    0.0004058693928415    0.7495568497107414 Cl
  -0.0013857531638294    0.5016694385331153    0.7486244593589820 Cl
   0.4987279458293907    0.4992267984605148    0.7494089216981535 Cl
   0.0007526650069329    0.2503595112111037   -0.0004913491608612 Cl
   0.5004742462714711    0.2521960381741896    0.0003653158223675 Cl
   0.0002139210982566    0.7507037370299459   -0.0009005703468806 Cl
   0.5027851695977996    0.7515112201624816   -0.0005692761667974 Cl
   0.0005571649052992    0.2479089602302855    0.5003251014882293 Cl
   0.5000020885600011    0.2503813553093825    0.4993504876270876 Cl
   0.0010822115421002    0.7490596036103196    0.5011916054380283 Cl
   0.4995861244320603    0.7481504207946055    0.4995015492346591 Cl
