Si10
1.0
   4.0265166700000004   -0.0300372800000000    0.2662533100000000
  -0.0347748700000000    3.8028879700000000   -0.3740800800000000
   0.5027478600000000   -0.6384571300000000   12.8639075199999997
Si
10
direct
   0.3798519705387036    0.2435633511356005    0.8702671203136825 Si
   0.8687509196852715    0.2631133612233000    0.9776144899775938 Si
   0.2046734309022967    0.9171496403778546    0.1603332097335948 Si
   0.8614590400468705    0.4199238310434272    0.1647924097847316 Si
   0.4991096695360480    0.1997653999167279    0.3006179902337406 Si
   0.1558107104493177    0.5284950712332381    0.4369671596594278 Si
   0.8038888487883424    0.3410794601199388    0.5991256002799714 Si
   0.4302895298219262    0.8235422591219927    0.5800497097014504 Si
   0.4953300794157580    0.7766783206427652    0.9858419998290926 Si
   0.8008358109034710    0.9866893210193101    0.4243903103496866 Si
