Li32 Cl32
1.0
  10.6769138240090022    0.0000000000000000    0.0000000000000006
   0.0000000000000017   10.6769138240090022    0.0000000000000006
   0.0000000000000000    0.0000000000000000   10.6769138240090022
Li Cl
32 32
direct
  -0.0004944549713369   -0.0011775413867840    0.0014820500407141 Li
   0.4996000037293067    0.0008516415088502    0.0023767921839569 Li
  -0.0007850632412419    0.5000061392289320    0.0018496571061864 Li
   0.4992570238207280    0.5005190216103379   -0.0003212037225047 Li
   0.0014654343164797    0.0000701895242825    0.5015911088899498 Li
   0.4995174397450706   -0.0007861745664360    0.4984590813099798 Li
  -0.0019224414581744    0.4995253507608827    0.5004092425701101 Li
   0.4975052694562946    0.5004709868439926    0.5006235946879519 Li
   0.0002750131573970    0.2504304123579989    0.2482183219510748 Li
   0.4983709896148484    0.2522058942541795    0.2471673011934492 Li
   0.0018506216297025    0.7486540045350836    0.2521283649104045 Li
   0.5020020817864833    0.7476221223977689    0.2466669232646516 Li
   0.0030108715964401    0.2533363041933295    0.7473828949987534 Li
   0.4988627582907083    0.2483079266347550    0.7521428593586390 Li
  -0.0012313730926230    0.7538316639237058    0.7508614742189064 Li
   0.5021592184309646    0.7526916380657420    0.7500028840113471 Li
   0.2500384035558237    0.0018829892506461    0.2488614213739984 Li
   0.7517945770770436    0.0002931700848580    0.2502319437857584 Li
   0.2497503391999950    0.4986999863962457    0.2491525019180368 Li
   0.7504252672964499    0.5015275795609714    0.2475386901509462 Li
   0.2491515514166457   -0.0010050983883643    0.7539032763356777 Li
   0.7514020302098808   -0.0005876456812850    0.7510765192099023 Li
   0.2492689313127253    0.4966400990205241    0.7521454097315041 Li
   0.7481894208535798    0.4991950695580617    0.7511518965422804 Li
   0.2486955407719562    0.2504150405164919    0.0000338810623491 Li
   0.7508102537050340    0.2470852752764511    0.0011903317123891 Li
   0.2501744794204922    0.7497487306102779   -0.0000983615217960 Li
   0.7486056579405930    0.7476577041914770    0.0025674795980818 Li
   0.2486398823567898    0.2516022969335336    0.5013792806666854 Li
   0.7486805499743452    0.2508466415566570    0.5011803567902283 Li
   0.2508166324959943    0.7545237046437261    0.4984681246361159 Li
   0.7472928067571932    0.7498595555701215    0.4997806314062382 Li
   0.2488441885222527   -0.0000028116742263   -0.0004743533747951 Cl
   0.7505329798975134    0.0020550179798607   -0.0006369297632687 Cl
   0.2487245287217796    0.5008921586402817   -0.0011981609818930 Cl
   0.7489115534083104    0.5012603078220567   -0.0000306084566425 Cl
   0.2497833840557330    0.0040829595396150    0.4986531370832177 Cl
   0.7492321597108600    0.0033967324492537    0.4983232395607055 Cl
   0.2489608027161216    0.5010864522666516    0.4995321077935835 Cl
   0.7511186004199600    0.4994462608490050    0.5003245762535914 Cl
   0.2522512244918836    0.2491804884984014    0.2497848762178267 Cl
   0.7498681925508602    0.2547655988641824    0.2490194827405694 Cl
   0.2502687482164526    0.7518442700644336    0.2521493004279528 Cl
   0.7512230565455560    0.7496530938189117    0.2514517932822601 Cl
   0.2502666609640167    0.2515734874226211    0.7508813778051538 Cl
   0.7500069091488195    0.2501001800360304    0.7478778274293524 Cl
   0.2487833300190195    0.7507032030808539    0.7505935455338665 Cl
   0.7512493440920869    0.7504133130343829    0.7525182385211534 Cl
   0.0018354077023646   -0.0008014227972281    0.2515534012642640 Cl
   0.4998096408520534    0.0022431279714404    0.2495040154682453 Cl
  -0.0004795073887738    0.5011095845297042    0.2490362953170566 Cl
   0.4991396299565636    0.4976620456577971    0.2465187319462835 Cl
   0.0000926321749373   -0.0011399633381993    0.7483657406813545 Cl
   0.5020085390658947   -0.0038541238923265    0.7490120784547347 Cl
   0.0017279201620020    0.5003926903739107    0.7517579942426702 Cl
   0.4975329812814268    0.4987425243007573    0.7501071163518347 Cl
  -0.0011418859086036    0.2507245292755041    0.0004054756670281 Cl
   0.4990410841740591    0.2488939588001068    0.0001393853100975 Cl
  -0.0035638665734309    0.7484887074584520    0.0003379373125634 Cl
   0.5008297718485702    0.7507228586993441   -0.0013377076135635 Cl
  -0.0008488645573686    0.2501780475176926    0.4978867727537321 Cl
   0.5028695883905591    0.2478743897650542    0.4989344548309170 Cl
   0.0003722085537193    0.7513325070592306    0.4986656880224500 Cl
   0.4975389115159060    0.7509603841772522    0.4977877888095444 Cl
