ALGO = Normal
EDIFF = 1e-07
EDIFFG = 1e-06
ENCUT = 520
ISMEAR = 0
ISPIN = 1
KSPACING = 0.2
LASPH = True
LCHARG = False
LMAXMIX = 4
LORBIT = 11
LREAL = False
LWAVE = False
NELM = 100
NPAR = 4
NSW = 0
PREC = Accurate
SIGMA = 0.05
