Sn64
1.0
  13.5237437746161469    0.0000000000000000    0.0000000000000008
   0.0000000000000022   13.5237437746161469    0.0000000000000008
   0.0000000000000000    0.0000000000000000   13.5237437746161469
Sn
64
direct
   0.2503672904199379    0.2498977618154592    0.0004789269516599 Sn
   0.7511261895239887    0.2498268575783262   -0.0001731302817114 Sn
   0.2511677334633266    0.7505674721008787   -0.0003471482407232 Sn
   0.7504011907151068    0.7496573303217394   -0.0003443793089636 Sn
   0.2501789166340316    0.2485852436451443    0.4987245263876185 Sn
   0.7495842219886653    0.2492510719389438    0.5002323671150773 Sn
   0.2493285704826606    0.7489556858478891    0.5010837596403390 Sn
   0.7498330519238983    0.7500499330701714    0.4989464838953192 Sn
   0.1245974615213082    0.3750820206235481    0.3741489090620138 Sn
   0.6252778062233406    0.3745558635981803    0.3747843099110316 Sn
   0.1245550739334778    0.8763696489784030    0.3749900196092421 Sn
   0.6242178860036218    0.8756082227863905    0.3740972591093729 Sn
   0.1251544421415295    0.3735509411028933    0.8740178858228654 Sn
   0.6251455671145132    0.3755460518864469    0.8751267165986327 Sn
   0.1249144850092433    0.8747773518186919    0.8739067213820314 Sn
   0.6244677182440073    0.8746593851683107    0.8757816786859000 Sn
   0.2502540851818070   -0.0013036627909736    0.2502396407199041 Sn
   0.7497152546758988   -0.0005005433492289    0.2504522980463361 Sn
   0.2507623625082510    0.5006886259712079    0.2493794488144638 Sn
   0.7497713559344183    0.5002449495028332    0.2507213572982308 Sn
   0.2496456792986978   -0.0001372837135618    0.7491819314293111 Sn
   0.7491154767170862    0.0006008142685454    0.7510028584178862 Sn
   0.2499467528202394    0.5007420525814572    0.7502674082199977 Sn
   0.7495229725101594    0.5002672304441221    0.7511372860888956 Sn
   0.1249735087859493    0.1261569604407552    0.1230628551178210 Sn
   0.6256077477642824    0.1250643661028254    0.1247789019405802 Sn
   0.1250678516083007    0.6235303116150931    0.1248375657720979 Sn
   0.6252640633965441    0.6260928142897201    0.1246167701585367 Sn
   0.1244021673167080    0.1246289806639739    0.6256768851384334 Sn
   0.6252430917911034    0.1246082740011968    0.6253795305809303 Sn
   0.1250717830439306    0.6257162550597497    0.6244808737095455 Sn
   0.6247577134319767    0.6247100594630695    0.6239178181925633 Sn
   0.0002189632412442    0.2501930347665044    0.2500037810954774 Sn
   0.4998265368397354    0.2489534179546443    0.2496889579322296 Sn
  -0.0002534168956750    0.7494067639238126    0.2498807388587406 Sn
   0.5002987714523052    0.7513947217077203    0.2501290898553989 Sn
   0.0001904431162073    0.2499449516960637    0.7485811834006345 Sn
   0.4999803945742458    0.2500445366393691    0.7518214202764687 Sn
  -0.0001422394330941    0.7502229762315517    0.7499743327215572 Sn
   0.4991358324609690    0.7508450491473078    0.7505560095231161 Sn
   0.3755849208327414    0.3743275623451979    0.1260372825264326 Sn
   0.8739634149491771    0.3754339457354270    0.1266197109781993 Sn
   0.3742675576070954    0.8745812566852487    0.1250736862267937 Sn
   0.8746277098542333    0.8738533770996335    0.1250506982208097 Sn
   0.3742144899138654    0.3753501932885804    0.6243201407468548 Sn
   0.8761460838291881    0.3744208310173649    0.6247618547633160 Sn
   0.3756015473458589    0.8740898494256120    0.6251681930228750 Sn
   0.8759665539188459    0.8738113622519389    0.6251365256999906 Sn
   0.0001921677891711    0.0005781112721499   -0.0009146510992021 Sn
   0.4990236012785433    0.0003859445833310    0.0002196024105327 Sn
   0.0001852244870359    0.5002561777384065   -0.0005028376261127 Sn
   0.5001717377236892    0.5002167095725731   -0.0005282201659035 Sn
   0.0013796287050682    0.0003503711167622    0.4991191022862776 Sn
   0.5004854821413180   -0.0007207188234790    0.5005820020083638 Sn
   0.0008567121636703    0.4993931544903327    0.5007123590518274 Sn
   0.5003052268172302    0.5006078643411874    0.5014025650103000 Sn
   0.3748185501588225    0.1244426571688143    0.3743422572591954 Sn
   0.8743967570677456    0.1249429878954385    0.3752522614894974 Sn
   0.3752045963040570    0.6256116525592480    0.3750096141217214 Sn
   0.8760748015500601    0.6248043020944135    0.3770114024725130 Sn
   0.3754626435979505    0.1243661832324676    0.8742081390213329 Sn
   0.8753567595063051    0.1248347626300453    0.8755279606786341 Sn
   0.3753499309307100    0.6249461473731899    0.8743738466713206 Sn
   0.8738798610429686    0.6246698288879851    0.8756332557083276 Sn
