Sn64
1.0
  13.5237437746161486    0.0000000000000000    0.0000000000000008
   0.0000000000000022   13.5237437746161486    0.0000000000000008
   0.0000000000000000    0.0000000000000000   13.5237437746161486
Sn
64
direct
   0.2494449652923292    0.2509733675427824    0.0009214460503033 Sn
   0.7488132607597378    0.2489143955228317   -0.0012681920676378 Sn
   0.2513744594118986    0.7500647660719733   -0.0000386891361569 Sn
   0.7504107380662572    0.7492876205655729   -0.0001333369431464 Sn
   0.2491249396795502    0.2504476910615758    0.4992963113104756 Sn
   0.7502668314823117    0.2507842578754646    0.4999133729680441 Sn
   0.2506105297943393    0.7491054152075216    0.4991196937503818 Sn
   0.7501625820665457    0.7498425590327108    0.4989562807703775 Sn
   0.1246428644141804    0.3758886312121927    0.3744781008541238 Sn
   0.6250186201063387    0.3747107841132439    0.3751428148349583 Sn
   0.1252582797617036    0.8754371484641960    0.3753848119857661 Sn
   0.6256102026205700    0.8753151520128585    0.3751446641026924 Sn
   0.1246198447805679    0.3727271908825800    0.8747078034921923 Sn
   0.6244118498566532    0.3744800245232514    0.8737153019859042 Sn
   0.1255551778194707    0.8736217180867086    0.8753094638521416 Sn
   0.6248259846969282    0.8753195174216468    0.8756435288518438 Sn
   0.2514852560211027    0.0010143425745199    0.2507827698485550 Sn
   0.7510687407187293    0.0000361019043646    0.2500667932798756 Sn
   0.2496448787992698    0.5002223221177551    0.2508229820431168 Sn
   0.7499857176780851    0.4999994028292660    0.2495278450670050 Sn
   0.2511791730102114    0.0000137631909911    0.7504151281474818 Sn
   0.7498532382563647    0.0003425142917294    0.7486548887560414 Sn
   0.2500982899568537    0.4995437064999668    0.7509673205333638 Sn
   0.7505736856047331    0.4997928307413597    0.7494646913421550 Sn
   0.1243024786225423    0.1254153333961447    0.1244877212605449 Sn
   0.6262583494678970    0.1242223140111223    0.1245111179509053 Sn
   0.1242525001012430    0.6239212449325539    0.1252887908406485 Sn
   0.6244007249660477    0.6258560291827120    0.1250234869258234 Sn
   0.1235973349231575    0.1243604204811748    0.6249577058710486 Sn
   0.6259102641062215    0.1246054705656875    0.6247515670601035 Sn
   0.1238496352537448    0.6259011105005943    0.6233306081628973 Sn
   0.6251634294758077    0.6249592038638866    0.6252079191254015 Sn
   0.0004426626908702    0.2507595340306192    0.2500051331727908 Sn
   0.4987035322770866    0.2511455632421857    0.2495227824264696 Sn
   0.0006502179989210    0.7497645756418889    0.2505378376866873 Sn
   0.4999515062708432    0.7496664737945885    0.2506311346344037 Sn
  -0.0018749854343032    0.2497134791132056    0.7499844163093787 Sn
   0.5002338273557783    0.2495342890515575    0.7485361438846833 Sn
   0.0002045918083207    0.7490857238001283    0.7504239466877747 Sn
   0.5002355011482382    0.7499417914970268    0.7510922960336539 Sn
   0.3758341839767198    0.3741979223080341    0.1236312023404865 Sn
   0.8759857760795928    0.3766570217300242    0.1244209676981879 Sn
   0.3751800860721807    0.8742531263096638    0.1244693348109061 Sn
   0.8771450038028230    0.8752853766605107    0.1250294446373263 Sn
   0.3750794977483701    0.3740501626238698    0.6252528738799850 Sn
   0.8763545159218636    0.3760717025835037    0.6246094854756199 Sn
   0.3743266341162484    0.8754815249919606    0.6250120884660540 Sn
   0.8748988540898337    0.8744249709434860    0.6255892079402620 Sn
   0.0000283291613090   -0.0000444175305205    0.0000055369263596 Sn
   0.5002845258532138   -0.0007591975501712   -0.0007985231095988 Sn
  -0.0019036231925897    0.5002252322219806    0.0013993739871282 Sn
   0.5007514554358743    0.4999676568866152   -0.0008559583159883 Sn
  -0.0002925570928168   -0.0004955149959926    0.5002364623026938 Sn
   0.4997814358766620    0.0003012258341155    0.4996711052425364 Sn
  -0.0010284703897733    0.5012390143812560    0.4989791090822354 Sn
   0.4990559140813764    0.4994261496856408    0.4995613168727635 Sn
   0.3755586086276070    0.1252668199828531    0.3746353332785548 Sn
   0.8753519733964168    0.1266298431033161    0.3752711280161773 Sn
   0.3751587667421929    0.6255222955403444    0.3743316198296706 Sn
   0.8770670813075525    0.6261215887721633    0.3745774978571674 Sn
   0.3754135134757603    0.1234480840144380    0.8752412819707306 Sn
   0.8750015500755649    0.1252830321112881    0.8745179486067441 Sn
   0.3758031895979549    0.6243020619640779    0.8758843789365183 Sn
   0.8746928321884537    0.6236272898406870    0.8746300626501933 Sn
