Si6
1.0
   7.1501096700000000   -0.0000000000000000    0.0000000000000000
  -3.5750548300000000    6.1921766199999997   -0.0000000000000000
   0.0000000000000000    0.0000000000000000    2.8406043799999998
Si
6
direct
   0.6665709704370226    0.6666665896878118    0.0822438005252953 Si
   0.3333334089834204    0.9999043793424615    0.0822438005252953 Si
   0.0000956197720866    0.3334290293547862    0.0822438005252953 Si
   0.3333334091163724    0.3334290293547862    0.0822438005252953 Si
   0.0000956197169826    0.6666665896878118    0.0822438005252953 Si
   0.6665709703591748    0.9999043793424615    0.0822438005252953 Si
