ALGO = Fast
EDIFF = 0.0001
ENCUT = 200
ISMEAR = 0
KSPACING = 0.3
LCHARG = False
LMIXTAU = True
LREAL = False
LWAVE = False
NELM = 50
NPAR = 8
PREC = Normal
SIGMA = 0.05
SYMPREC = 9.999999999999999e-05
