Si12
1.0
   4.8007112300000001   -0.3697276800000000    1.5005188199999999
  -2.8167538500000000    3.9057508699999999    1.4971952900000001
  -2.8524456400000000   -5.0649343299999998    7.8573588299999999
Si
12
direct
   0.6668570195867026    0.8334289494543543    0.8750313996017842 Si
   0.1667330704108232    0.8329285595359630    0.8749825103365485 Si
   0.1676933404736609    0.3330835796808284    0.8750070193696535 Si
   0.1657512096500496    0.3336143303320359    0.1250555800864076 Si
   0.1661384603087481    0.8333960995971227    0.1250345300266398 Si
   0.6663301003514709    0.8337827212906038    0.1251007803204089 Si
   0.1679029602043447    0.3333072500152481    0.6248174099787152 Si
   0.6666935302947050    0.8334443801822983    0.6249321796767997 Si
   0.1665267002115794    0.8331737390931574    0.6249240502585096 Si
   0.6667570191111036    0.8338391993202057    0.3751140703112203 Si
   0.1662414791320192    0.3332235791395775    0.3750684399751475 Si
   0.1663750994336114    0.8327776297039654    0.3749320402757212 Si
