Li32 Cl32
1.0
  10.2880028407615729    0.0000000000000000    0.0000000000000006
   0.0000000000000016   10.2880028407615729    0.0000000000000006
   0.0000000000000000    0.0000000000000000   10.2880028407615729
Li Cl
32 32
direct
  -0.0010139568333647   -0.0007978766179602    0.0006465257298316 Li
   0.5017716041599133   -0.0014012276557219    0.0002272628014675 Li
   0.0003301120141675    0.5002247411052525   -0.0000096479586739 Li
   0.5017533507843791    0.5013295524966364   -0.0002540455797716 Li
  -0.0004350755487870    0.0005538901093764    0.4990192265305165 Li
   0.4989026513492840    0.0010298836670764    0.5010015948549280 Li
   0.0001383808894717    0.5005762820999414    0.4990176545810796 Li
   0.4982043505718707    0.4997764347065126    0.5003663434955682 Li
  -0.0004568587134045    0.2497876235142523    0.2503362363766234 Li
   0.4997965176854695    0.2503954919676977    0.2509906245395687 Li
  -0.0010164177403806    0.7515753768227453    0.2482219430193560 Li
   0.5012005823319160    0.7478280625605194    0.2496920177658683 Li
   0.0012595350117456    0.2501677778900692    0.7498771797692493 Li
   0.5000168885691629    0.2512649522589031    0.7506019320981528 Li
  -0.0002184054843625    0.7496339896202839    0.7510886458913593 Li
   0.5003851258030800    0.7506218201268255    0.7484922765893725 Li
   0.2516792748930570    0.0001630889618208    0.2512754379727553 Li
   0.7516178817153502    0.0000833520342998    0.2503567012170577 Li
   0.2511370177889101    0.5007206305732123    0.2505444877820945 Li
   0.7502877546169102    0.4998181904720030    0.2500111323615955 Li
   0.2502849250647722    0.0013067358503437    0.7508208484896645 Li
   0.7491569854033485    0.0002052736690232    0.7494706915385477 Li
   0.2497031749460346    0.4984092214473995    0.7506756550843128 Li
   0.7500139247635699    0.5009063342745335    0.7501260032935708 Li
   0.2498770944956004    0.2520463979192601   -0.0014836412024143 Li
   0.7487452481371626    0.2509107640421940    0.0005785796230864 Li
   0.2485545612865533    0.7485527379882864   -0.0006479281174119 Li
   0.7511575782287316    0.7501758137744179    0.0011025275932365 Li
   0.2498752723387478    0.2507024770166204    0.4983718746891613 Li
   0.7492882672212245    0.2481320050093874    0.5007574589252297 Li
   0.2502273934442308    0.7480707740065338    0.4987977778752326 Li
   0.7496615340623960    0.7507547065009443    0.5013019393845020 Li
   0.2504297307273046    0.0004476979949708   -0.0009040013033761 Cl
   0.7503219423484838    0.0001135416983501   -0.0006716505642286 Cl
   0.2490363714691138    0.4994967887035959   -0.0001468057551663 Cl
   0.7510076875435960    0.5003775627033956   -0.0008790397168586 Cl
   0.2500752213619127    0.0006165611200548    0.4987650214457744 Cl
   0.7492710776580833    0.0027208485638531    0.5002858235131187 Cl
   0.2502176206138823    0.4991647794641286    0.4987715431045156 Cl
   0.7505578078396081    0.4980474242208125    0.4992682772407481 Cl
   0.2501615517604958    0.2493435750672688    0.2498387428954323 Cl
   0.7502977728364295    0.2485324433023190    0.2493088621937825 Cl
   0.2496139425341401    0.7497545750558339    0.2490647749474762 Cl
   0.7502959666693358    0.7489214801601256    0.2492035722634462 Cl
   0.2515303400673027    0.2491190823108006    0.7504377745031833 Cl
   0.7502990112059246    0.2512424507193958    0.7497103298325126 Cl
   0.2502245166163954    0.7508564391389447    0.7505162461998436 Cl
   0.7485160066519265    0.7495511445914740    0.7514503181075048 Cl
  -0.0005893808787893    0.0000532298701799    0.2503414473572807 Cl
   0.4977059710143405    0.0006765278816242    0.2492598507766792 Cl
  -0.0003862298770129    0.4995631765525852    0.2507143335162026 Cl
   0.5004150791283821    0.5005906369869849    0.2499945941783468 Cl
  -0.0001029021059317   -0.0000259518307734    0.7485600419272003 Cl
   0.5012059744692601   -0.0002580313875956    0.7494037292255167 Cl
  -0.0000826908246447    0.4996955123081374    0.7510182660092281 Cl
   0.5002080185711528    0.5020711287224069    0.7480198015340143 Cl
  -0.0004727949944145    0.2497706914340954   -0.0004752855922375 Cl
   0.4991792124619537    0.2499525530884235    0.0014430641474076 Cl
  -0.0000959672428517    0.7493805817180590    0.0016281574311359 Cl
   0.4986184444142382    0.7501914095090395   -0.0007183904071603 Cl
  -0.0007368049828682    0.2504253852256240    0.4994430293268587 Cl
   0.5005413272729582    0.2497369282021540    0.4994459831305157 Cl
  -0.0012363893849440    0.7528392317753633    0.5000239419890840 Cl
   0.5002519747453854    0.7477635716362089    0.5011746454592529 Cl
