Li32 Cl32
1.0
  10.2880028407615729    0.0000000000000000    0.0000000000000006
   0.0000000000000016   10.2880028407615729    0.0000000000000006
   0.0000000000000000    0.0000000000000000   10.2880028407615729
Li Cl
32 32
direct
   0.0000256364362042    0.0002530342433336   -0.0003840838184377 Li
   0.4998014183042128   -0.0012360345097118   -0.0025241814863892 Li
   0.0002815715706287    0.4991511426879159    0.0003830409678737 Li
   0.5009089281548211    0.4999847543708932    0.0002523288244292 Li
  -0.0014320702121629    0.0007794774248108    0.4982982582588965 Li
   0.4995188065758857   -0.0009803659903038    0.5000245374989345 Li
  -0.0001181053860132    0.4984964300594949    0.4994100468449181 Li
   0.4986452057858756    0.4993898762429628    0.5003233204340088 Li
  -0.0014982177451775    0.2516235413677704    0.2495144384453976 Li
   0.5006542853603219    0.2521851564467642    0.2483920467590707 Li
  -0.0004611167235430    0.7497065365887102    0.2490950368195868 Li
   0.5010798850631062    0.7498156270353126    0.2512426217321094 Li
  -0.0005385662577397    0.2503443843722407    0.7495720489397711 Li
   0.4995874332133672    0.2502216966969991    0.7505628343770114 Li
  -0.0008302761638209    0.7491822121877539    0.7493626516999009 Li
   0.4998572291397821    0.7486275514083679    0.7497370171560572 Li
   0.2510976895340876   -0.0013027388233856    0.2497576827766118 Li
   0.7517141249276859   -0.0005753880864941    0.2491176016421568 Li
   0.2502641908459726    0.4999955660290523    0.2508301970260882 Li
   0.7484545057884044    0.5000544799489061    0.2501028990447947 Li
   0.2499117053338219   -0.0006938917757661    0.7501980125754772 Li
   0.7511693541069558    0.0000819528044737    0.7501593447492962 Li
   0.2503632887313098    0.4997794451908769    0.7493475172830163 Li
   0.7503053166725229    0.5014428632418461    0.7506339074435415 Li
   0.2497739373023289    0.2511515803454735    0.0008951662691717 Li
   0.7511824460077484    0.2481694573433187    0.0002150971191996 Li
   0.2517657414006513    0.7516940935981967   -0.0000587847693718 Li
   0.7494269559823856    0.7492009823428543   -0.0000507563595284 Li
   0.2499171486731575    0.2504189859150064    0.4998088262974675 Li
   0.7493579012150743    0.2497604037942715    0.4997963231474546 Li
   0.2495079598854436    0.7486016516344204    0.4998017000976047 Li
   0.7494484503980027    0.7496609847981497    0.4989986509055467 Li
   0.2505694460488532    0.0003614207211080   -0.0023397597230276 Cl
   0.7509369973615515    0.0000938025539372    0.0004167631303124 Cl
   0.2505806118619232    0.5007096482990832   -0.0011581070054039 Cl
   0.7514721783564454    0.4993218855521912   -0.0003171066093467 Cl
   0.2507612408824570   -0.0016398952856015    0.5013767597389065 Cl
   0.7493884578754014   -0.0005017459428163    0.5023781032200231 Cl
   0.2484620915529390    0.4982449111719442    0.5003674175697747 Cl
   0.7490050681398892    0.4990688411597950    0.4998045581307032 Cl
   0.2502954150112389    0.2497681112610731    0.2505440109549416 Cl
   0.7486597252042828    0.2513314646210096    0.2482382955864926 Cl
   0.2501279910246982    0.7517109294892010    0.2494857250906696 Cl
   0.7509507473601653    0.7489686796893168    0.2486705932691979 Cl
   0.2482089686006617    0.2494965369315627    0.7515818539762213 Cl
   0.7503134801053970    0.2506789808671889    0.7529098300439497 Cl
   0.2502220404981672    0.7497286683153485    0.7502256927508590 Cl
   0.7509546645544930    0.7500225840124231    0.7503170000449096 Cl
  -0.0002706331725645   -0.0000851229142407    0.2514299846269745 Cl
   0.4995414329131489    0.0003011707768256    0.2498442483766254 Cl
   0.0001952413491170    0.4991323214452581    0.2501903991978696 Cl
   0.4999749893457615    0.5009009244776448    0.2497153555735357 Cl
   0.0010087735136716    0.0013817146707040    0.7503838958186175 Cl
   0.5001360180666337    0.0002581944366524    0.7508294849765553 Cl
  -0.0000987084436604    0.5011808207942878    0.7510644292196753 Cl
   0.5001279554532345    0.4996097970453394    0.7512717330828681 Cl
  -0.0009052653108991    0.2494343668562304   -0.0011070449373107 Cl
   0.4994905676743440    0.2510922273137551    0.0005196073422293 Cl
   0.0001946577551952    0.7504666545483015    0.0012662290553163 Cl
   0.4995897302746466    0.7504632902501382    0.0004987912539114 Cl
  -0.0001776622806494    0.2492254698621887    0.4986086129699999 Cl
   0.4986666622897651    0.2495115072609438    0.5006755351358246 Cl
   0.0004335640921830    0.7516318324039112    0.4996902462610069 Cl
   0.5008546302478654    0.7490879843515335    0.5008720692871824 Cl
