pymatgen with grid density = 966 / number of atoms
0
Gamma
4 4 4
