ALGO = Normal
EDIFF = 1e-07
ENAUG = 1360
ENCUT = 700.0
GGA = Ps
IBRION = -1
ISIF = 3
ISMEAR = 0
ISPIN = 1
ISYM = 0
KSPACING = 0.2
LAECHG = False
LASPH = True
LCHARG = False
LELF = False
LMIXTAU = True
LOPTICS = False
LREAL = False
LVTOT = False
LWAVE = False
NELM = 200
NPAR = 4
NSW = 0
PREC = Accurate
SIGMA = 0.05
SYMPREC = 1e-09
