Li4 Cl4
1.0
   5.0610971241896960   -0.0000006092523619   -0.0000003660074017
  -0.0000006092815283    5.0610988165144262    0.0000007954914030
  -0.0000003665234025    0.0000007959831166    5.0610955328987517
Li Cl
4 4
direct
   1.0019758471283773    0.0000000143884762    0.0000000107516982 Li
   0.0000000034717687    0.4999999886037613    0.5000000122922756 Li
   0.5000000719600592    0.0000000248133745    0.4999999239567003 Li
   0.4999999835485269    0.4999999476935811    0.0000000407198897 Li
   0.5000001417092435    0.0000000296706020    0.0000000704553358 Cl
   0.4999999916177629    0.4999999860471361    0.4999998505436807 Cl
   0.9999998367678485    0.9999999911917783    0.4999999574638707 Cl
   0.9999999799704115    0.5000000175912831    0.0000001338165418 Cl
