Li32 Cl32
1.0
  10.1220382892769774    0.0000000000000000    0.0000000000000006
   0.0000000000000016   10.1220382892769774    0.0000000000000006
   0.0000000000000000    0.0000000000000000   10.1220382892769774
Li Cl
32 32
direct
   0.0002542965339475   -0.0008975281527467   -0.0003739396110167 Li
   0.4994715337133803    0.0008477278207697   -0.0004080304485237 Li
   0.0004921820785988    0.5019859628961307    0.0012476356129333 Li
   0.4995660806210019    0.4996577390016833    0.0004498300110558 Li
  -0.0016485441561522   -0.0008516915964674    0.5004869679742723 Li
   0.4998771854120753    0.0019118049468854    0.4993890137170892 Li
  -0.0010342175718936    0.4991211082558314    0.5000138712547767 Li
   0.4998411093876850    0.5022034688914332    0.4996056962964185 Li
   0.0000537881420803    0.2508735215081450    0.2498933213269333 Li
   0.5005489082024519    0.2503901453686146    0.2508271111002752 Li
  -0.0013909038181451    0.7507981094227735    0.2498633835985509 Li
   0.5001849218309440    0.7496180036821998    0.2516390460916845 Li
  -0.0020223882508537    0.2513824458536069    0.7493291794579341 Li
   0.5015105506330829    0.2512064921395794    0.7510027511137336 Li
   0.0008181454749356    0.7522389687170130    0.7494122175266184 Li
   0.4994257386497496    0.7493520137669515    0.7509139946193809 Li
   0.2487165022428070    0.0009989755406102    0.2497150374514268 Li
   0.7489451600212906   -0.0010646085963713    0.2492128326921430 Li
   0.2485318741745576    0.5005079300739438    0.2508415210850816 Li
   0.7509471150077438    0.4993810692755521    0.2503042183837634 Li
   0.2500051429216001    0.0006831943210244    0.7504394985934290 Li
   0.7500891910600520   -0.0018359374329860    0.7498354283602193 Li
   0.2501095396766627    0.4993136040151644    0.7497340698007197 Li
   0.7487164392063331    0.4996827660220937    0.7504997696389828 Li
   0.2520638724251982    0.2489995006678910   -0.0000236850223092 Li
   0.7490501230853301    0.2499085498529830   -0.0002210346125347 Li
   0.2508228502385549    0.7509623749195081    0.0001608551094601 Li
   0.7498868883748189    0.7511721635491868    0.0001776239584607 Li
   0.2514981583494303    0.2483856689997318    0.5017604862282365 Li
   0.7493897200512056    0.2489266990878609    0.4999557862490481 Li
   0.2488503279808958    0.7505620799672400    0.4995429340985297 Li
   0.7502838905530882    0.7490344447601290    0.4997802455868283 Li
   0.2500957630914940   -0.0001861130569720    0.0015724127027449 Cl
   0.7505787478870685    0.0002012197407224   -0.0018341372037343 Cl
   0.2503736297427082    0.5012212365531961   -0.0006816530266102 Cl
   0.7498040368090465    0.4970107405381699   -0.0012306080927705 Cl
   0.2479410871487009    0.0001028662837632    0.4998515778247641 Cl
   0.7498954592937837   -0.0004316859178835    0.5010068489044789 Cl
   0.2487820603013950    0.4999267691583640    0.5005891987025808 Cl
   0.7498227703185814    0.4999102996203140    0.4991848681013291 Cl
   0.2496690691622352    0.2507096898736991    0.2480048858471341 Cl
   0.7498438762584025    0.2494228285732814    0.2499305411660129 Cl
   0.2517518025316151    0.7495587555788434    0.2514714176493354 Cl
   0.7510870426389694    0.7500295358672824    0.2500860556030586 Cl
   0.2501790498484713    0.2491847770443020    0.7506192811654999 Cl
   0.7493946892616008    0.2500353114012174    0.7478305134314501 Cl
   0.2491471256434161    0.7505286478352942    0.7488900819547366 Cl
   0.7503299385787494    0.7494988850657168    0.7509782122363405 Cl
   0.0012427773269785    0.0001754833499323    0.2499853118353909 Cl
   0.5000399485885860   -0.0000211862166800    0.2511772891476401 Cl
   0.0024746643054651    0.4986826160021666    0.2489841249120972 Cl
   0.5013467343484865    0.4988714974584684    0.2486445166223427 Cl
   0.0020898670554897   -0.0002709680379253    0.7497528705027657 Cl
   0.4994973044110381    0.0005743316837917    0.7488805613570819 Cl
   0.0017529959617591    0.5007439670770663    0.7499488243076268 Cl
   0.4994549461445472    0.5001069517195704    0.7510313828317861 Cl
   0.0025858849313078    0.2514905776200800    0.0010006902346395 Cl
   0.5000425267513489    0.2512176446832297   -0.0003422342724243 Cl
   0.0003278819679938    0.7511565812091675    0.0005994580087306 Cl
   0.4993433210053460    0.7484857063075674    0.0004954502199264 Cl
   0.0001330131696573    0.2509187771691652    0.5000571915064028 Cl
   0.4996249928890953    0.2510412459167577    0.5009843011107160 Cl
  -0.0020837635244585    0.7484991999027995    0.5001282692495986 Cl
   0.4999355486850622    0.7498152693711819    0.5008139985985970 Cl
