Li32 Cl32
1.0
  10.6769138240090022    0.0000000000000000    0.0000000000000006
   0.0000000000000017   10.6769138240090022    0.0000000000000006
   0.0000000000000000    0.0000000000000000   10.6769138240090022
Li Cl
32 32
direct
  -0.0015463821685078    0.0002798084782614    0.0007830926013068 Li
   0.5004825094556223    0.0005075004817745    0.0004181869044675 Li
   0.0000102998090328    0.4991516770918799    0.0010493631891785 Li
   0.5000278458044013    0.5009814920429602    0.0002370364291769 Li
   0.0001731558067987   -0.0002039944831636    0.5005359278582672 Li
   0.5002018920987013   -0.0006722242492439    0.5004108040737523 Li
  -0.0020789277771398    0.4990844734188663    0.5002526590636411 Li
   0.5001481461637225    0.5010542973100569    0.5012805755210168 Li
   0.0003379620623025    0.2505310725121253    0.2490532692949393 Li
   0.4999311911379649    0.2516174428552995    0.2474983501302616 Li
   0.0005676054181746    0.7509368996935227    0.2519328846166501 Li
   0.5015221185224037    0.7489528497530349    0.2495044253717641 Li
   0.0002864569384145    0.2520129909038790    0.7484121305766854 Li
   0.4995755184457875    0.2499296107718616    0.7519247180958262 Li
   0.0001893216722959    0.7512021273144611    0.7509046883251732 Li
   0.5005997280416767    0.7509771447537158    0.7505170150257345 Li
   0.2490240315489330    0.0005406452101881    0.2501967161434768 Li
   0.7499424452349087   -0.0006924954219381    0.2507247705130727 Li
   0.2497208191870984    0.5008261083548950    0.2492990937851805 Li
   0.7496330198194575    0.4981229698166221    0.2484266491565665 Li
   0.2496944223453446    0.0005949990672118    0.7511703918878158 Li
   0.7488918156481583    0.0002690820250258    0.7519917044519719 Li
   0.2504893645403475    0.4989132099194625    0.7491982586069512 Li
   0.7503588180519605    0.4998631205881622    0.7515979360282519 Li
   0.2492315973507379    0.2496546256761683    0.0003901021362909 Li
   0.7503405264412899    0.2494235107003081   -0.0000752353831642 Li
   0.2490184156520212    0.7501189234199678    0.0004305498993253 Li
   0.7498152395781497    0.7489804453189900    0.0008026715280038 Li
   0.2478415658360097    0.2499250808318070    0.5013370266734621 Li
   0.7512207693272687    0.2497883293183977    0.4994626702790847 Li
   0.2495907869269885    0.7504552436493656    0.4993576394817810 Li
   0.7481154138630466    0.7486563765920132    0.5001210733751011 Li
   0.2495429591788315   -0.0007862872478798   -0.0001652178419667 Cl
   0.7509823927854643    0.0004277260036312    0.0000793019485556 Cl
   0.2506037392338745    0.5011572068701807   -0.0013508690874956 Cl
   0.7501552273140126    0.5005837136473689   -0.0003335038459136 Cl
   0.2495172515004901    0.0015717812955041    0.5005188337861444 Cl
   0.7496167843190475    0.0020827896113957    0.4993643786820460 Cl
   0.2496429786792201    0.4996195250673319    0.4990257243096464 Cl
   0.7499789331288066    0.5000677916759836    0.5004953787394776 Cl
   0.2506600081509908    0.2483608399131373    0.2500971619995158 Cl
   0.7505018384991929    0.2514246520092157    0.2503587194658395 Cl
   0.2488459498591381    0.7495094714285394    0.2506654222711201 Cl
   0.7505226942709634    0.7497516910537941    0.2499223481096134 Cl
   0.2506389932097702    0.2497931973111878    0.7502065039653081 Cl
   0.7504697035946265    0.2497558320733342    0.7485375169226315 Cl
   0.2493483466794153    0.7503143563510228    0.7516173066163585 Cl
   0.7510724007610721    0.7502276060408245    0.7524154342385049 Cl
   0.0006154617182364   -0.0008291908413138    0.2492353723371278 Cl
   0.4999454306536609    0.0007441116851458    0.2502164530791027 Cl
   0.0008309177283893    0.4998447215538901    0.2504825224635305 Cl
   0.4998006515110458    0.4996088077675784    0.2482392085114971 Cl
  -0.0007586060267079    0.0006784065304974    0.7499616995540863 Cl
   0.5011110961833084   -0.0008912075844446    0.7509411831800801 Cl
   0.0000785354355699    0.5002781156519334    0.7506789430461860 Cl
   0.4988416716131535    0.4990960281444956    0.7493382146626728 Cl
  -0.0010329017798470    0.2496894379472867   -0.0005268863844384 Cl
   0.4996610265731866    0.2506954232863407   -0.0002488369068357 Cl
  -0.0014999303669262    0.7491487550927419    0.0000224525908826 Cl
   0.4990403696451319    0.7486526326615269   -0.0008098472950483 Cl
  -0.0007583209594935    0.2492624790487431    0.4994901638015340 Cl
   0.5007211208200779    0.2488694463321787    0.5000963482772537 Cl
   0.0004527871400542    0.7497606836584565    0.4987629729034650 Cl
   0.4984167492296646    0.7509539615915961    0.4992662527575533 Cl
