Li32 Cl32
1.0
  10.2880028407615729    0.0000000000000000    0.0000000000000006
   0.0000000000000016   10.2880028407615729    0.0000000000000006
   0.0000000000000000    0.0000000000000000   10.2880028407615729
Li Cl
32 32
direct
   0.0005049336092288   -0.0012332329222617    0.0002336896965499 Li
   0.4992185485907792    0.0000168585680772    0.0003833531513210 Li
   0.0012433241746248    0.5006412676829439   -0.0004426329222383 Li
   0.5014247556587469    0.4995928007291386    0.0014252580667651 Li
   0.0002107139023419    0.0004935287262942    0.5009458318376078 Li
   0.4996533422308449   -0.0007662270620340    0.4997739330750529 Li
  -0.0008237762604103    0.4983006880902185    0.5007854503765357 Li
   0.5012050885251579    0.5005449413883409    0.4994723786131817 Li
  -0.0004705961679295    0.2512828805013855    0.2514050734828315 Li
   0.5000503667388022    0.2515830860957219    0.2496442455841195 Li
  -0.0000235634547203    0.7491965734978451    0.2484881435366537 Li
   0.4996093795823596    0.7494081523555701    0.2499356947262568 Li
   0.0011199297998963    0.2499929062732485    0.7506751477120364 Li
   0.4997222943226052    0.2506206897046834    0.7510814727217687 Li
   0.0003059971362857    0.7517165021289680    0.7509074879319377 Li
   0.4999364658331322    0.7504898490786738    0.7477877727364519 Li
   0.2493497297968667    0.0016991848281951    0.2511435187940178 Li
   0.7516799954116842    0.0008162977561772    0.2499102394153694 Li
   0.2501858498128141    0.5001056143904073    0.2496860217969491 Li
   0.7506836063556076    0.4996422262499057    0.2501541181583394 Li
   0.2506320152806824   -0.0008449550009531    0.7491946426040594 Li
   0.7509918833651212   -0.0010903881251881    0.7494584137592343 Li
   0.2507230964439714    0.4998949537249350    0.7494677708229859 Li
   0.7483781740076383    0.5011237303177896    0.7498897703083330 Li
   0.2499843627562618    0.2503400829366764    0.0014472291941544 Li
   0.7501882309131096    0.2496641632637799    0.0002983813242155 Li
   0.2512604649998980    0.7489898598233358   -0.0001870514699690 Li
   0.7486916742583941    0.7500791161205433    0.0016127774734915 Li
   0.2492517755838308    0.2500256553140289    0.5005069949294310 Li
   0.7504073716872812    0.2512578699514865    0.4995736790626291 Li
   0.2493857257071064    0.7492905048625660    0.5001773832236072 Li
   0.7496764035897312    0.7498134049196011    0.4991322407376521 Li
   0.2523961005042392    0.0001290580411207   -0.0001918020707441 Cl
   0.7525905360265845    0.0004320580294794   -0.0004817463867382 Cl
   0.2505357435494949    0.5010578008092721    0.0002035126643097 Cl
   0.7489978406331457    0.4990535332132724   -0.0008615437587952 Cl
   0.2515125012193200    0.0013595027977731    0.4988066768286598 Cl
   0.7482201682326612   -0.0011097466199199    0.4995765700482994 Cl
   0.2499445220990065    0.4994983603072142    0.4995254275394182 Cl
   0.7510115712583623    0.4996177957018162    0.4991263521606659 Cl
   0.2504926342792291    0.2498916773783406    0.2490882152428656 Cl
   0.7516735022828260    0.2510751714368061    0.2509956088734615 Cl
   0.2493462607439750    0.7491917525134921    0.2495478462345108 Cl
   0.7504587813535345    0.7495845310513989    0.2502636360048497 Cl
   0.2493870949556062    0.2511629189891372    0.7502243780045894 Cl
   0.7509711214502246    0.2499668276910978    0.7492242376671909 Cl
   0.2485286695825988    0.7501032586485560    0.7499094342136344 Cl
   0.7493141198217875    0.7504717669708721    0.7492777247194049 Cl
   0.0000124772541481    0.0001028266545817    0.2501814872684541 Cl
   0.5006342699140965   -0.0016083161548877    0.2486238500548752 Cl
  -0.0003355632213842    0.5006178636875948    0.2499445356708729 Cl
   0.4974736478756276    0.4994292110079645    0.2499738471676667 Cl
  -0.0004530563885818    0.0001432176122446    0.7519944505502040 Cl
   0.4980097243635531   -0.0010035864127014    0.7491607485258756 Cl
  -0.0004202490431634    0.5000299496578906    0.7504228421844785 Cl
   0.4996793712846777    0.5004976521458867    0.7494165319270987 Cl
  -0.0018559895328374    0.2518289241763291    0.0018052522198735 Cl
   0.5004173741845840    0.2502845378945130   -0.0007945044692531 Cl
  -0.0010639200679661    0.7497167752595335    0.0001612530926941 Cl
   0.4990299870022278    0.7497307838164085    0.0000679712434010 Cl
   0.0000558153342627    0.2513358530888142    0.4997682044314679 Cl
   0.5012103415666243    0.2511131756346969    0.5015797167058688 Cl
   0.0006218968062215    0.7497726668766070    0.4978583359444688 Cl
   0.4981736915130804    0.7496931295701498    0.5006035076358054 Cl
