Si8
1.0
   5.5193717400000004   -0.0093117500000000   -0.0000000300000000
  -0.0093118600000000    5.5193725200000001   -0.0000001900000000
  -0.0000002000000000   -0.0000010300000000    5.9762076899999999
Si
8
direct
   0.2022666297507524    0.4991704594685118    0.2237832000297142 Si
   0.7977333793548913    0.5008296204460401    0.2237831997250466 Si
   0.4998035198634987    0.2022708506961573    0.7762168006958217 Si
   0.5001964692373924    0.7977290802570660    0.7762167995494177 Si
   0.2022709101944261    0.4998035094850433    0.7762168002951039 Si
   0.7977290807152132    0.5001964196594315    0.7762167999501356 Si
   0.5008295993046292    0.7977334496925784    0.2237831993074931 Si
   0.4991704097826740    0.2022666193511414    0.2237832004472672 Si
