Li32 Cl32
1.0
  10.2880028407615729    0.0000000000000000    0.0000000000000006
   0.0000000000000016   10.2880028407615729    0.0000000000000006
   0.0000000000000000    0.0000000000000000   10.2880028407615729
Li Cl
32 32
direct
  -0.0002823708136993    0.0001089891291807    0.0012157803046558 Li
   0.4986772068474454    0.0000971353564490   -0.0000466476378667 Li
  -0.0003462573793646    0.4989419140878648   -0.0003411912924125 Li
   0.5025159401622530    0.4995085044211456   -0.0005679520283266 Li
  -0.0012374601713075    0.0007258775598009    0.4994572842506261 Li
   0.4998923002248428   -0.0011540982763550    0.4990199984073940 Li
  -0.0006705497094844    0.4999167548917656    0.5007997210586735 Li
   0.5008903805906740    0.5016687865842558    0.5005047238998205 Li
   0.0017775228964189    0.2510521111932560    0.2503583049884543 Li
   0.5002862621904440    0.2487012020462870    0.2489857889691186 Li
  -0.0015911678820535    0.7512908865300137    0.2504057968306201 Li
   0.5006976521100697    0.7509741029986989    0.2498011983870136 Li
  -0.0000319982117230    0.2496373087095029    0.7503069475759360 Li
   0.4997037847611496    0.2503525043002991    0.7494550442644828 Li
  -0.0002929369098774    0.7503127168784568    0.7503502786413032 Li
   0.4998100029274076    0.7486969166205800    0.7510639744749127 Li
   0.2488572735824811   -0.0002893148568738    0.2494618847670289 Li
   0.7494604968509363    0.0004337302150564    0.2508092405018360 Li
   0.2497076874754865    0.4993289011508285    0.2498016966171200 Li
   0.7500327395238234    0.5006809770357783    0.2490315667137218 Li
   0.2492399762143186   -0.0013927432461679    0.7498597985845188 Li
   0.7487434101681899    0.0005399696272755    0.7510798918733143 Li
   0.2502488454872318    0.5007334344799811    0.7481105445962563 Li
   0.7503603413547382    0.5003200854184684    0.7492865857947472 Li
   0.2464237847843188    0.2500844193314329    0.0003671010943196 Li
   0.7524231548582750    0.2502458805027793   -0.0001830151286560 Li
   0.2489214869116023    0.7501009899148242    0.0012950679518184 Li
   0.7510759892457851    0.7496150842691812   -0.0012055611202671 Li
   0.2506375613725157    0.2523134525100290    0.4990526285487824 Li
   0.7506417148428481    0.2509405922847088    0.4998631939607078 Li
   0.2496115565300285    0.7503230732976065    0.5003565158143195 Li
   0.7506534503894837    0.7498774150589747    0.4996926354450381 Li
   0.2507516254639286   -0.0016702033543396    0.0010982543333403 Cl
   0.7503410919228130   -0.0003190567446420   -0.0015797187657383 Cl
   0.2490044049860519    0.5003648907113680   -0.0009364831897670 Cl
   0.7497469647646700    0.4980831071213203   -0.0010349375515333 Cl
   0.2511550098140182    0.0003433948627909    0.5020243458027517 Cl
   0.7488404458463277   -0.0007353260083388    0.4997976696915521 Cl
   0.2498139303846789    0.5007628084311088    0.4992740294683749 Cl
   0.7489746890847181    0.5006471531747010    0.4974716293426514 Cl
   0.2478729910366949    0.2503559745524820    0.2511040310030220 Cl
   0.7511637480694987    0.2509006238402852    0.2485269587598877 Cl
   0.2498981871591370    0.7497876196622371    0.2500651384819206 Cl
   0.7490324519314636    0.7500090166089379    0.2508598379555649 Cl
   0.2509258644078148    0.2499718592262105    0.7500062281764986 Cl
   0.7506304175443431    0.2502518302494747    0.7506732122676019 Cl
   0.2488543330739718    0.7500233562525106    0.7495246775834052 Cl
   0.7499175687617050    0.7500402492135259    0.7494660466863041 Cl
  -0.0002601676585905    0.0009678736369239    0.2518996552257926 Cl
   0.4995788776585732    0.0006732934252404    0.2515201834597909 Cl
   0.0012931737081607    0.5003821042748527    0.2483691001202807 Cl
   0.5015141024704559    0.4995899143995052    0.2504662339325894 Cl
  -0.0005090971093674   -0.0003714499677697    0.7502914526908921 Cl
   0.4991713269379473    0.0013780380718247    0.7499340060804718 Cl
   0.0010583121168648    0.5003152050906033    0.7506677136056137 Cl
   0.4998272079056730    0.5002750823350012    0.7489593753380193 Cl
   0.0014041929113658    0.2505093917070393    0.0009377933660637 Cl
   0.4977467272725102    0.2485089312874645   -0.0003091455844186 Cl
   0.0009608330066356    0.7495958728915544   -0.0008726490764864 Cl
   0.4989239782584378    0.7493187273160707   -0.0005729637756059 Cl
   0.0007980149378478    0.2501907974786961    0.4985811477149106 Cl
   0.5000920033710776    0.2510925242339968    0.4992419779453559 Cl
  -0.0013674652635515    0.7503079243273097    0.4994619755839730 Cl
   0.5009991049533672    0.7494433185520010    0.5003579473877893 Cl
