Li32 Cl32
1.0
  10.4227015901040261    0.0000000000000000    0.0000000000000006
   0.0000000000000016   10.4227015901040261    0.0000000000000006
   0.0000000000000000    0.0000000000000000   10.4227015901040261
Li Cl
32 32
direct
  -0.0014740483002924   -0.0008073493191741    0.0010170679059048 Li
   0.5000089773651090    0.0016057450300282    0.0005626736153546 Li
  -0.0000428790323931    0.5002785208659057    0.0002590864352128 Li
   0.4990530907283462    0.4992441960571446   -0.0009720335913012 Li
   0.0003797201191596   -0.0004123016384301    0.4990307853928497 Li
   0.5006988852430534   -0.0005340906118277    0.5011193853978905 Li
  -0.0005755757272846    0.4973090945619497    0.5008844811217645 Li
   0.4976786596891257    0.4977440384027074    0.4998344797377191 Li
   0.0012948326066220    0.2505786052282883    0.2498252256396532 Li
   0.5007834135542556    0.2498446091620151    0.2482344220868582 Li
  -0.0003109067386878    0.7486476369226973    0.2495987290525978 Li
   0.5003542976322649    0.7508392222083449    0.2500694648073577 Li
   0.0015139630030622    0.2497306582014431    0.7495826212298844 Li
   0.5019646500373415    0.2501280919179983    0.7507995742606992 Li
   0.0016191723366900    0.7514379257650309    0.7510254324543144 Li
   0.5001579732811422    0.7510244589554372    0.7508996965958666 Li
   0.2499107051938342   -0.0019927603420962    0.2521791185030209 Li
   0.7494681075189469    0.0021588861676521    0.2492612200763942 Li
   0.2493821669794497    0.5001450283619044    0.2505453234527438 Li
   0.7501139119657346    0.4997666910638811    0.2501290950654390 Li
   0.2493604772429474   -0.0008642290803582    0.7510637887289131 Li
   0.7504366165254471   -0.0000284458112006    0.7500680171823486 Li
   0.2494199594496144    0.4997971299812052    0.7496322689525348 Li
   0.7503428798317280    0.4993805821934089    0.7497288538220788 Li
   0.2508932336940000    0.2505321778362414   -0.0011861149934494 Li
   0.7511781987718489    0.2486992768862248   -0.0005314771201660 Li
   0.2509785907921657    0.7481125484101533   -0.0029672325812302 Li
   0.7496521487146453    0.7496951369758262   -0.0005086627448810 Li
   0.2496340632764319    0.2493377987686240    0.5003852677237572 Li
   0.7515978092591936    0.2501746999264201    0.5004037122473139 Li
   0.2502805862681499    0.7487207864289668    0.5001953111374727 Li
   0.7498350031915709    0.7502248103535046    0.5000963774155145 Li
   0.2496160065738541   -0.0027481242069948    0.0009160909862844 Cl
   0.7504001799774311   -0.0002355257498978    0.0000117434569722 Cl
   0.2493778673465530    0.5011269297550998   -0.0013560684815602 Cl
   0.7496465585781977    0.5011330188315917   -0.0003362291891448 Cl
   0.2506086360387444    0.0000934436469874    0.5002726507913042 Cl
   0.7512744488523776    0.0002771693589256    0.5020624294582168 Cl
   0.2518445739136997    0.5000232790422663    0.4998909445249318 Cl
   0.7501239654591043    0.5021869391545629    0.4996384212405801 Cl
   0.2496418067385077    0.2513678967697999    0.2490103774919757 Cl
   0.7495364404661267    0.2499241085046563    0.2518636616803767 Cl
   0.2515311956883658    0.7498784808589679    0.2503850776704654 Cl
   0.7501755681230512    0.7508132147942332    0.2510216551823572 Cl
   0.2493832638441579    0.2510307909948907    0.7496298392139262 Cl
   0.7491726728175602    0.2505251025928206    0.7504608687677748 Cl
   0.2495120095126480    0.7515685293326859    0.7466116377481761 Cl
   0.7508704329063504    0.7504947019343904    0.7493879181202706 Cl
   0.0007429309916990   -0.0010852908826771    0.2511758835707772 Cl
   0.5009341263124467   -0.0011306472856196    0.2500778731147220 Cl
   0.0002728666967586    0.4979609975067417    0.2489828110373889 Cl
   0.4987939712595446    0.4993716708543914    0.2491885984824286 Cl
   0.0003545846813195    0.0004658161447718    0.7495339125775151 Cl
   0.5000173794223041    0.0001041149957655    0.7501558165554586 Cl
  -0.0014657298531900    0.4999519922400712    0.7504799475473415 Cl
   0.4988775187165079    0.4998815035395075    0.7490714726707015 Cl
   0.0003944644485894    0.2504486852965937    0.0006059847085135 Cl
   0.4989776096014144    0.2485795700908481   -0.0003197913131652 Cl
  -0.0019077194655032    0.7508119719596718    0.0017664349898811 Cl
   0.4985624493964915    0.7487275003868076   -0.0022033707952927 Cl
  -0.0007482245601414    0.2507851457861786    0.4984382996027912 Cl
   0.5002308827911192    0.2513747836214806    0.4996103155766154 Cl
  -0.0002402541980573    0.7500261694618189    0.4993187287544517 Cl
   0.5008193111882933    0.7496718137979961    0.4992286313680658 Cl
