Li32 Cl32
1.0
  10.4227015901040261    0.0000000000000000    0.0000000000000006
   0.0000000000000016   10.4227015901040261    0.0000000000000006
   0.0000000000000000    0.0000000000000000   10.4227015901040261
Li Cl
32 32
direct
   0.0003264238335963   -0.0004003926719125    0.0007952963124971 Li
   0.5033232265864317    0.0027177446336760   -0.0008437610510501 Li
   0.0021808088711389    0.4993663329878785    0.0004676395805114 Li
   0.4999924608691825    0.4968278178248982   -0.0010620127196935 Li
   0.0019109743688964   -0.0027727613629874    0.4995473286374488 Li
   0.5016024222413071   -0.0018243405209414    0.4998621509151503 Li
  -0.0017689145063401    0.4970425321463406    0.5028542711950843 Li
   0.4998761245428670    0.4972842173807747    0.4996500562992740 Li
  -0.0019245919835872    0.2505260196325660    0.2497441264096202 Li
   0.5004187126134128    0.2480024846620759    0.2480142675499605 Li
  -0.0019701384708232    0.7478431970798097    0.2493340578780234 Li
   0.4991794311817518    0.7512532750656424    0.2474420358388875 Li
   0.0030933805410399    0.2496368643144740    0.7498976381505958 Li
   0.5006708265537307    0.2484465350944430    0.7503629076357093 Li
   0.0004728407532713    0.7530472308103746    0.7518095145017842 Li
   0.5010197360304133    0.7501492755153228    0.7514961726398961 Li
   0.2524125877785015   -0.0007569172540701    0.2521953902455698 Li
   0.7491357770217963    0.0008926260241437    0.2514770287038353 Li
   0.2510034503133783    0.4984396612761308    0.2509558830815243 Li
   0.7498982703388629    0.5009172792197516    0.2517442332021924 Li
   0.2504718508662189   -0.0020804486488312    0.7523939862020992 Li
   0.7498824945060102   -0.0014682463386344    0.7511482935454580 Li
   0.2509136197762749    0.5001295699672776    0.7492945864887084 Li
   0.7517944842686837    0.4989922150881001    0.7524194681663939 Li
   0.2520805264007543    0.2488508422484473   -0.0019540659171610 Li
   0.7540074384548486    0.2497412189691969   -0.0024609385646837 Li
   0.2521547459029209    0.7492680403971936   -0.0006094255041688 Li
   0.7517975773440598    0.7504003337951304    0.0008583042222636 Li
   0.2501773758696997    0.2485069965625741    0.5013894694054616 Li
   0.7493189887390023    0.2490803595370616    0.4994990448246940 Li
   0.2506442626036111    0.7505922403303836    0.5002667623398951 Li
   0.7518214949451433    0.7486385195770376    0.4992753624148667 Li
   0.2485492617753330   -0.0034171180096717    0.0009250025715485 Cl
   0.7510848409067457    0.0000205685638655    0.0001602585844846 Cl
   0.2484976705542945    0.5035172975365918   -0.0029254269050251 Cl
   0.7488514745075858    0.4993395324989528    0.0011584311104327 Cl
   0.2504018374556898    0.0026540335539651    0.4996534932009887 Cl
   0.7522531010761829    0.0011618270773348    0.5021192751984516 Cl
   0.2519739194719879    0.5008135132361624    0.5014629112312023 Cl
   0.7500990317229096    0.5029426216155766    0.5000912527456673 Cl
   0.2499411345452012    0.2491546652088475    0.2474629015009501 Cl
   0.7516616160032646    0.2497093484214303    0.2523968591673545 Cl
   0.2522781617338467    0.7519747980459335    0.2488395824131216 Cl
   0.7505430671680691    0.7507753077123194    0.2528756728559425 Cl
   0.2511294581709334    0.2525636433983524    0.7486372335059730 Cl
   0.7496541536951999    0.2534942683889491    0.7529337762764976 Cl
   0.2475108119949104    0.7511823142116343    0.7457456526202678 Cl
   0.7515149658826547    0.7525541394968098    0.7480996083596462 Cl
  -0.0008766080529069   -0.0024254517666199    0.2509012543163260 Cl
   0.4997305674662729   -0.0008029630720461    0.2525612577548266 Cl
   0.0019289873005356    0.4980446553955702    0.2505461103695007 Cl
   0.4977630832356914    0.4972095460613711    0.2499900232360257 Cl
   0.0026020460385362   -0.0000872480564777    0.7495410824605572 Cl
   0.4974064666346957    0.0008135124496553    0.7476694619169878 Cl
  -0.0029815412687367    0.4999501140033145    0.7490895354338541 Cl
   0.5007572718381037    0.4984883978562792    0.7489810269661880 Cl
   0.0010963691994899    0.2486371733767151    0.0000363950919618 Cl
   0.4989664780326689    0.2461378359805163    0.0009579417398800 Cl
  -0.0038520308720336    0.7523331150275424   -0.0010182036672020 Cl
   0.4977520583668095    0.7488496793612306    0.0001389040750956 Cl
   0.0009199352018143    0.2497787319385820    0.4974314891459278 Cl
   0.4998207067114692    0.2504017608439872    0.4988280988594461 Cl
  -0.0001967717054643    0.7509515590074940    0.4979284697786339 Cl
   0.5006984558912210    0.7478628430715486    0.4994586844446567 Cl
