Li32 Cl32
1.0
  10.1220382892769774    0.0000000000000000    0.0000000000000006
   0.0000000000000016   10.1220382892769774    0.0000000000000006
   0.0000000000000000    0.0000000000000000   10.1220382892769774
Li Cl
32 32
direct
   0.0005778241725188    0.0012163515936754    0.0008119908663771 Li
   0.4992104076922498    0.0004070852318407   -0.0001740327483266 Li
  -0.0000722897577989    0.4994411536755086   -0.0000923383612261 Li
   0.5008469648686091    0.4991481722736377    0.0000162823920139 Li
   0.0015462410283361   -0.0004634640398525    0.4996124291173191 Li
   0.5008068206973836    0.0000754544588944    0.4999011136829211 Li
   0.0016041799811349    0.4986795726216783    0.4998664969944102 Li
   0.4995274265271599    0.4984242550935991    0.4991415174550908 Li
  -0.0000323283186233    0.2484909842623140    0.2498769041710548 Li
   0.4997412090795502    0.2509833505646928    0.2503137148303327 Li
  -0.0000377991497652    0.7499326242612677    0.2495630565482680 Li
   0.4995264819635272    0.7500508934826419    0.2490368409351233 Li
  -0.0014159013520795    0.2496453089413254    0.7504488188779064 Li
   0.4992042136445173    0.2473382786161239    0.7504950470662348 Li
  -0.0000045790764952    0.7496117990971475    0.7498466117536804 Li
   0.5004442828453178    0.7511732750842411    0.7496694437091381 Li
   0.2498861532767232    0.0018144576019470    0.2507198033104612 Li
   0.7488815384206229   -0.0014010949054938    0.2521351187818228 Li
   0.2482651061149858    0.5007026992997230    0.2493168925732485 Li
   0.7502539572892926    0.5010324121894733    0.2481010276165761 Li
   0.2498551527033689    0.0013468145474773    0.7509461641188567 Li
   0.7520392764734127   -0.0008486674439748    0.7496075931814921 Li
   0.2498193469605270    0.5002691788672797    0.7494359630969083 Li
   0.7494965508806020    0.4995775021083794    0.7501461094348482 Li
   0.2502666990518702    0.2494602477957563    0.0001225774318103 Li
   0.7517585171323758    0.2487306051271162    0.0010655758161897 Li
   0.2502121461152243    0.7495840536136146   -0.0001388314090810 Li
   0.7489768317482566    0.7498513884896312   -0.0019828486433260 Li
   0.2499855764327748    0.2499121885093330    0.5013903006764464 Li
   0.7496619714658216    0.2492705481320102    0.4993524515164728 Li
   0.2487797811391027    0.7512273425823253    0.5001306645723760 Li
   0.7506083006889476    0.7511697102173467    0.4993891391514610 Li
   0.2496983657050456    0.0003228884728953    0.0001790108213869 Cl
   0.7490559117695408   -0.0002052094838034   -0.0005460729481070 Cl
   0.2502903799212209    0.4980514625150056    0.0010639755244526 Cl
   0.7489943767109588    0.4994064307187139   -0.0004415135755278 Cl
   0.2497962052574745   -0.0004001126652182    0.5001658774760673 Cl
   0.7496476714396069    0.0020447479843735    0.4997734031800361 Cl
   0.2502793687042025    0.4980495938239273    0.4999503705025284 Cl
   0.7491814674394961    0.5019546319563934    0.5001868670656620 Cl
   0.2508205482703878    0.2512678107308187    0.2520127222589879 Cl
   0.7480695995492428    0.2504001407615750    0.2504430203593868 Cl
   0.2510924739992590    0.7495571994514055    0.2496596292272690 Cl
   0.7500613282622147    0.7506625406550845    0.2507415135492091 Cl
   0.2481964441433780    0.2495047015369402    0.7500936660422932 Cl
   0.7496113005601407    0.2513070383422865    0.7505641897196719 Cl
   0.2495046621442803    0.7495789451132886    0.7507753350448940 Cl
   0.7514108254009243    0.7500440968684958    0.7491567940029992 Cl
   0.0007551846068662   -0.0019240221279094    0.2492420367886890 Cl
   0.5010633897637391   -0.0007556939306301    0.2508344362010824 Cl
   0.0013600535748560    0.5018235016674564    0.2505840710877367 Cl
   0.5013841600142198    0.5010366619634861    0.2487577748131131 Cl
   0.0011763600352688   -0.0002577823549958    0.7494607036505238 Cl
   0.4984228796198076   -0.0010405066320557    0.7501430135069400 Cl
   0.0016763331808967    0.5014985653204566    0.7503907416972799 Cl
   0.4995125902478706    0.5017872936921731    0.7498035418623923 Cl
  -0.0010127994429399    0.2516197217091686   -0.0007237006512678 Cl
   0.5004777433120206    0.2492881110313448   -0.0000473613632782 Cl
   0.0006632294282300    0.7490213519200724    0.0001125161263406 Cl
   0.5011936611101565    0.7524589966266486    0.0009948640326699 Cl
   0.0015070604380614    0.2497092015201709    0.4996338815462771 Cl
   0.5018501962202429    0.2515219320216508    0.5006369573626679 Cl
  -0.0011964047393024    0.7497735843820317    0.5001935638478616 Cl
   0.4996228300027265    0.7506243499835996    0.4998373970793708 Cl
