Li4 Cl4
1.0
   5.0842446780995250    0.0000000000000000    0.0000000000000003
   0.0000000000000008    5.0842446780995250    0.0000000000000003
   0.0000000000000000    0.0000000000000000    5.0842446780995250
Li Cl
4 4
direct
  -0.0000984250819751    0.0001052128388920    0.0002184038309872 Li
  -0.0002909735558650    0.4999914441682559    0.4994260808060356 Li
   0.5000166933954949   -0.0007159275320539    0.5001256180609958 Li
   0.5001678035681153    0.4997364343812168    0.0000662338982359 Li
   0.5005575986986710    0.0000252287897848    0.0000604551686251 Cl
   0.4998448696144742    0.5001296808523901    0.5000765490050822 Cl
  -0.0001554392577282   -0.0000883581592263    0.5002536046808260 Cl
  -0.0001000387984902    0.4999405580903827   -0.0000993051528744 Cl
