Li32 Cl32
1.0
  10.1684893561990499    0.0000000000000000    0.0000000000000006
   0.0000000000000016   10.1684893561990499    0.0000000000000006
   0.0000000000000000    0.0000000000000000   10.1684893561990499
Li Cl
32 32
direct
   0.0023833280074737    0.0026108247270631   -0.0021186633133233 Li
   0.4983336503810767    0.0002504015532319    0.0010353097721436 Li
   0.0017139985917622    0.5039244850675967   -0.0007554117965090 Li
   0.5014470148891064    0.5012758786083948   -0.0010144115884371 Li
   0.0012184284857829   -0.0028117868731410    0.5006036659405966 Li
   0.5040525480483279   -0.0007694382468651    0.5005569495732690 Li
   0.0008679384473892    0.4983786365449491    0.5006768285952042 Li
   0.4985740296154671    0.5011715962121590    0.4996770805402577 Li
  -0.0037011996507286    0.2488437677989801    0.2459798794782319 Li
   0.5019035859709280    0.2548485042473281    0.2510045051687526 Li
   0.0014074883610571    0.7494474735999606    0.2509342876833149 Li
   0.4999127444901202    0.7500320831328476    0.2509164077196389 Li
   0.0008091331583763    0.2514923145073947    0.7502144631602665 Li
   0.5009619145182002    0.2466139601688745    0.7493337784456324 Li
   0.0015801947556793    0.7518581296429473    0.7508562047355680 Li
   0.5005568565405516    0.7485554074630941    0.7536236515988906 Li
   0.2535512714017930    0.0002545966724454    0.2489551675081866 Li
   0.7479883521443590   -0.0021051978835563    0.2527240926623127 Li
   0.2486742680972974    0.5000144073420203    0.2483372680950949 Li
   0.7535858895673213    0.4989149319776055    0.2517716890304895 Li
   0.2527493168324726    0.0018276878189626    0.7490273949634985 Li
   0.7479088639681842    0.0006912841545969    0.7501351149827814 Li
   0.2514624727102064    0.4990058748999338    0.7483460699247031 Li
   0.7479948767840486    0.5008898882915165    0.7485462532672839 Li
   0.2487624026728453    0.2488788101822424   -0.0005377374035894 Li
   0.7508999793545822    0.2505538494160417    0.0015582740727061 Li
   0.2487664474095069    0.7527772325436882    0.0001420835646836 Li
   0.7503109289614321    0.7523238062469557    0.0001287943889882 Li
   0.2494292561675705    0.2504731883922786    0.4963313966497775 Li
   0.7493891665183553    0.2476608908755429    0.4993216453043159 Li
   0.2511021714359631    0.7492234509192621    0.5023498616123531 Li
   0.7504586740547285    0.7503543773327740    0.5007195153185012 Li
   0.2532143923015663    0.0001573401556901   -0.0003049526026636 Cl
   0.7498801918159375   -0.0001873231307674   -0.0029764676055421 Cl
   0.2521633755230334    0.4967513972294266    0.0012496851901102 Cl
   0.7512781188578895    0.4995430938096924   -0.0026030430877846 Cl
   0.2500189520970424    0.0014066907328768    0.4992056053154079 Cl
   0.7495981454586615   -0.0000688789238497    0.5023729923842216 Cl
   0.2484920070367365    0.5023248265577692    0.4992084230773288 Cl
   0.7511926812720798    0.4981495376342774    0.4997800134951726 Cl
   0.2521815411905320    0.2478279666449290    0.2491783478773146 Cl
   0.7509662278848135    0.2506818409463417    0.2505003912551026 Cl
   0.2491170473004446    0.7511958220273356    0.2506622404122446 Cl
   0.7493985660810296    0.7511456091091105    0.2515460343718448 Cl
   0.2479800090026401    0.2500785322118375    0.7498367927985116 Cl
   0.7487884783155268    0.2507124216281319    0.7500606762662836 Cl
   0.2505861988280788    0.7504563824023206    0.7523598876978900 Cl
   0.7511222985141790    0.7497357070074803    0.7527848578107558 Cl
  -0.0045457658249427   -0.0012335007531950    0.2466992379041437 Cl
   0.4999790233756305   -0.0022281001702587    0.2512875277824863 Cl
  -0.0003859676682954    0.5003057899046841    0.2515292717263219 Cl
   0.5002600226670434    0.4980512599011183    0.2486976105905916 Cl
  -0.0014075063897531   -0.0009878361874143    0.7546047950320198 Cl
   0.5015598726750234    0.0020287085538666    0.7492749976521191 Cl
  -0.0033047657633340    0.4972036591130561    0.7503446736877160 Cl
   0.5005465587722363    0.4971218151191828    0.7521759986517249 Cl
  -0.0010793580550221    0.2523289429187907    0.0006288703643139 Cl
   0.5000902858759537    0.2526885699848265    0.0012415534852256 Cl
   0.0016390136951484    0.7478180736511719   -0.0014792919321707 Cl
   0.4978649864705757    0.7502553922831195   -0.0027208505583928 Cl
   0.0011752039022623    0.2497069406428094    0.5028163044956528 Cl
   0.5020398847857580    0.2501535800864320    0.5006243066629713 Cl
  -0.0025637661961810    0.7511629344752653    0.5027593467621588 Cl
   0.5014682942562254    0.7494971941833247    0.5003008936599158 Cl