Li32 Cl32
1.0
   9.9142771222940738    0.0000000000000000    0.0000000000000006
   0.0000000000000016    9.9142771222940738    0.0000000000000006
   0.0000000000000000    0.0000000000000000    9.9142771222940738
Li Cl
32 32
direct
  -0.0005923825584166   -0.0022880096389368    0.0001277842475878 Li
   0.5020050482971959    0.0001336364253715   -0.0003136258050545 Li
   0.0029873277379777    0.5020473099349815    0.0007795893935307 Li
   0.5003188519561759    0.4977475675135926    0.0013361361874174 Li
  -0.0009778932816661   -0.0020331684094289    0.4973981004517298 Li
   0.4983616242994264   -0.0056124224585841    0.4969135704905817 Li
   0.0001289200189637    0.4991122673681178    0.4995310246854779 Li
   0.4995050568545736    0.5015310752491304    0.4982692130693208 Li
   0.0006865161357901    0.2534799609563844    0.2495033884709524 Li
   0.4958105539804653    0.2501292515721561    0.2517816449128946 Li
   0.0056830341077287    0.7492482952799058    0.2487638736083869 Li
   0.5003865025892748    0.7489391475385798    0.2515641642808030 Li
  -0.0000261381076723    0.2496989034801431    0.7476457657525203 Li
   0.4964174143267449    0.2491528280556884    0.7508020567295179 Li
  -0.0030173651839746    0.7485630536849408    0.7491030868376797 Li
   0.4977199262699689    0.7501250697973846    0.7482185280550946 Li
   0.2496632322710900    0.0000083536597614    0.2485115482121327 Li
   0.7488680968157881    0.0014461401637606    0.2502206008705354 Li
   0.2483408654099540    0.4974226188061045    0.2465655758139852 Li
   0.7507438298144239    0.4981587109462871    0.2497002820529063 Li
   0.2497417062890495    0.0003520971392797    0.7494549987006864 Li
   0.7503637633074961    0.0029161344895310    0.7487537047723457 Li
   0.2505161994320427    0.5005975003899285    0.7511934871831421 Li
   0.7508649632833733    0.5031381164822721    0.7520328332339751 Li
   0.2511945609659709    0.2484564020830931   -0.0003900390793784 Li
   0.7491160300913090    0.2478959755965817   -0.0043444313316951 Li
   0.2488298636133051    0.7508166195761371    0.0020750584769070 Li
   0.7468261837630457    0.7520719581256939   -0.0007329337368119 Li
   0.2496881590250984    0.2468932151139097    0.5000653009819802 Li
   0.7488705836065773    0.2505148734656487    0.5006513838886891 Li
   0.2490385047632927    0.7505102978134496    0.4970714334264046 Li
   0.7507223826379018    0.7463611843855286    0.5017028329232617 Li
   0.2493163954451859   -0.0003496185272956    0.0024799110523679 Cl
   0.7505570386227962   -0.0008840982426997   -0.0029855890347926 Cl
   0.2522251340323968    0.5045126352398601   -0.0025723839562457 Cl
   0.7503527132690917    0.4999134300936227    0.0018132725884719 Cl
   0.2496372135094870    0.0018652686288634    0.5009862520229803 Cl
   0.7500080465863481   -0.0012003571455247    0.4983139163508294 Cl
   0.2526035368921380    0.5001551420669565    0.4959302194209099 Cl
   0.7512274014367397    0.4987998806464748    0.5012570515834952 Cl
   0.2490130542582048    0.2488444168913337    0.2482190838930730 Cl
   0.7496376127767490    0.2489040809368636    0.2521892274045721 Cl
   0.2479008305353196    0.7498521669696194    0.2512904826109687 Cl
   0.7469980816898645    0.7498896918412551    0.2510953261859411 Cl
   0.2504733706083548    0.2501200339270461    0.7513815065101503 Cl
   0.7511100239877007    0.2495262157158630    0.7554026704338062 Cl
   0.2501858121221786    0.7489860350987458    0.7494763282981791 Cl
   0.7524001588149388    0.7523539232244340    0.7500647284633566 Cl
   0.0002604793608199   -0.0019513904967635    0.2507393617767752 Cl
   0.5040184359206218   -0.0017790853917020    0.2509437303794749 Cl
  -0.0012527659345671    0.4976972418798084    0.2495707030966086 Cl
   0.4997890481263854    0.4996051325684819    0.2484384516292582 Cl
  -0.0012550958262422   -0.0001278485522337    0.7545350221997771 Cl
   0.4979069002475466    0.0043744345421800    0.7494147997365970 Cl
   0.0012053681171544    0.4984414578863580    0.7474139071973096 Cl
   0.5015596085588239    0.5019024256515365    0.7496468923207070 Cl
  -0.0005195248984717    0.2502536627067287    0.0018325769346492 Cl
   0.4971473845561723    0.2496190205946301   -0.0006729445032518 Cl
   0.0010712789497649    0.7515035846647572   -0.0028214266665053 Cl
   0.4983266643305458    0.7513721018608004   -0.0009096603546571 Cl
  -0.0027732111009310    0.2501593694404728    0.5013122262340695 Cl
   0.5055570020311582    0.2499254433499983    0.4989190412893517 Cl
   0.0003957083786152    0.7517825124368511    0.5021035119703068 Cl
   0.4971826319307359    0.7502161685772213    0.5003844501677001 Cl
