Sn64
1.0
  13.3055807095761107    0.0000000000000000    0.0000000000000008
   0.0000000000000022   13.3055807095761107    0.0000000000000008
   0.0000000000000000    0.0000000000000000   13.3055807095761107
Sn
64
direct
   0.2507515643411792    0.2500000000000000    0.0000000000000000 Sn
   0.7499999999999999    0.2500000000000000    0.0000000000000000 Sn
   0.2500000000000000    0.7499999999999999    0.0000000000000000 Sn
   0.7499999999999999    0.7499999999999999    0.0000000000000000 Sn
   0.2500000000000000    0.2500000000000000    0.4999999999999999 Sn
   0.7499999999999999    0.2500000000000000    0.5000000000000000 Sn
   0.2500000000000000    0.7499999999999999    0.5000000000000000 Sn
   0.7499999999999999    0.7499999999999999    0.4999999999999999 Sn
   0.1250000000000000    0.3749999999999999    0.3750000000000000 Sn
   0.6249999999999999    0.3749999999999999    0.3749999999999999 Sn
   0.1250000000000000    0.8750000000000000    0.3749999999999999 Sn
   0.6250000000000000    0.8750000000000000    0.3750000000000000 Sn
   0.1250000000000000    0.3749999999999999    0.8750000000000000 Sn
   0.6249999999999999    0.3749999999999999    0.8749999999999999 Sn
   0.1250000000000000    0.8750000000000000    0.8749999999999999 Sn
   0.6250000000000000    0.8750000000000000    0.8749999999999999 Sn
   0.2500000000000000    0.0000000000000000    0.2500000000000000 Sn
   0.7499999999999999    0.0000000000000000    0.2500000000000000 Sn
   0.2500000000000000    0.4999999999999999    0.2500000000000000 Sn
   0.7499999999999999    0.4999999999999999    0.2500000000000000 Sn
   0.2500000000000000    0.0000000000000000    0.7499999999999999 Sn
   0.7499999999999999    0.0000000000000000    0.7500000000000000 Sn
   0.2500000000000000    0.4999999999999999    0.7500000000000000 Sn
   0.7499999999999999    0.4999999999999999    0.7500000000000000 Sn
   0.1250000000000000    0.1250000000000000    0.1250000000000000 Sn
   0.6250000000000000    0.1250000000000000    0.1250000000000000 Sn
   0.1250000000000000    0.6250000000000000    0.1250000000000000 Sn
   0.6250000000000000    0.6250000000000000    0.1250000000000000 Sn
   0.1250000000000000    0.1250000000000000    0.6250000000000000 Sn
   0.6250000000000000    0.1250000000000000    0.6249999999999999 Sn
   0.1250000000000000    0.6250000000000000    0.6249999999999999 Sn
   0.6250000000000000    0.6250000000000000    0.6249999999999999 Sn
   0.0000000000000000    0.2500000000000000    0.2500000000000000 Sn
   0.4999999999999999    0.2500000000000000    0.2500000000000000 Sn
   0.0000000000000000    0.7499999999999999    0.2500000000000000 Sn
   0.5000000000000000    0.7499999999999999    0.2500000000000000 Sn
   0.0000000000000000    0.2500000000000000    0.7499999999999999 Sn
   0.4999999999999999    0.2500000000000000    0.7500000000000000 Sn
   0.0000000000000000    0.7499999999999999    0.7500000000000000 Sn
   0.5000000000000000    0.7499999999999999    0.7500000000000000 Sn
   0.3749999999999999    0.3749999999999999    0.1250000000000000 Sn
   0.8749999999999999    0.3749999999999999    0.1250000000000000 Sn
   0.3749999999999999    0.8750000000000000    0.1250000000000000 Sn
   0.8750000000000000    0.8750000000000000    0.1250000000000000 Sn
   0.3749999999999999    0.3749999999999999    0.6249999999999999 Sn
   0.8749999999999999    0.3749999999999999    0.6249999999999999 Sn
   0.3749999999999999    0.8750000000000000    0.6249999999999999 Sn
   0.8750000000000000    0.8750000000000000    0.6250000000000000 Sn
   0.0000000000000000    0.0000000000000000    0.0000000000000000 Sn
   0.4999999999999999    0.0000000000000000    0.0000000000000000 Sn
   0.0000000000000000    0.4999999999999999    0.0000000000000000 Sn
   0.4999999999999999    0.4999999999999999    0.0000000000000000 Sn
   0.0000000000000000    0.0000000000000000    0.4999999999999999 Sn
   0.4999999999999999    0.0000000000000000    0.4999999999999999 Sn
   0.0000000000000000    0.4999999999999999    0.4999999999999999 Sn
   0.4999999999999999    0.4999999999999999    0.5000000000000000 Sn
   0.3749999999999999    0.1250000000000000    0.3750000000000000 Sn
   0.8750000000000000    0.1250000000000000    0.3749999999999999 Sn
   0.3750000000000000    0.6250000000000000    0.3749999999999999 Sn
   0.8750000000000000    0.6250000000000000    0.3750000000000000 Sn
   0.3749999999999999    0.1250000000000000    0.8750000000000000 Sn
   0.8750000000000000    0.1250000000000000    0.8749999999999999 Sn
   0.3750000000000000    0.6250000000000000    0.8749999999999999 Sn
   0.8750000000000000    0.6250000000000000    0.8749999999999999 Sn
