Si20
1.0
   3.5231591600000001   -1.4227576500000001   -0.0216813300000000
  -1.7393841699999999   11.2691057899999993   -0.9141739000000000
  -4.8742692700000001   -2.5691579899999999   11.1978702600000002
Si
20
direct
   0.8852118710517175    0.8442988204236739    0.9061425896649299 Si
   0.1429493000867843    0.6958332804067143    0.8965438901814577 Si
   0.3255468415381990    0.1823289403519870    0.3749585902941415 Si
   0.5416412288010913    0.8084822996972943    0.7020535598899221 Si
   0.0993535404917476    0.0488232602619334    0.1642984303644215 Si
   0.7752213706690185    0.4341081700511857    0.0923203703199615 Si
   0.1500777212734388    0.9101489998630027    0.6552742901118804 Si
   0.9319984495797247    0.8013128797508768    0.1695511800247378 Si
   0.1500291294269016    0.2479018304575548    0.6879696804266456 Si
   0.5766781495040558    0.0914611296818151    0.0637806502754407 Si
   0.0405653686769789    0.5392666000084091    0.6060345498246811 Si
   0.5539673287432068    0.4896157596613263    0.6994015098523527 Si
   0.9396759211623759    0.2812555198828091    0.9938636402139893 Si
   0.1250439901068489    0.4984849602792427    0.3093935801899391 Si
   0.7408448611830246    0.7773522605419462    0.4341171702062175 Si
   0.6207171712759304    0.1789336604504214    0.7720162803567201 Si
   0.3312803195248828    0.8708502002251552    0.3822702801868090 Si
   0.8442861087664083    0.1358526902843177    0.4702350899930223 Si
   0.5866790095566354    0.4229231398046543    0.3870270798552490 Si
   0.1319132998191970    0.6594520100049726    0.0742007803574833 Si
