ALGO = Fast
EDIFF = 1e-07
EDIFFG = -0.001
ENAUG = 1360
ENCUT = 700.0
GGA = Ps
IBRION = 2
ISIF = 3
ISMEAR = 0
ISPIN = 1
ISYM = 0
LAECHG = False
LASPH = True
LCHARG = False
LELF = False
LMIXTAU = True
LOPTICS = False
LREAL = False
LVTOT = False
LWAVE = False
NELM = 500
NPAR = 4
NSW = 200
PREC = Accurate
SIGMA = 0.05
