Li4 Cl4
1.0
   5.0610971241896960   -0.0000006092523619   -0.0000003660074017
  -0.0000006092815283    5.0610988165144262    0.0000007954914030
  -0.0000003665234025    0.0000007959831166    5.0610955328987517
Li Cl
4 4
direct
  -0.0000000090456121    0.0000000143884762    0.0000000107516959 Li
   0.0000000034717678    0.4999999886037610    0.5000000122922766 Li
   0.5000000719600620    0.0000000248133779    0.4999999239567027 Li
   0.4999999835485249    0.4999999476935847    0.0000000407198898 Li
   0.5000001417092419    0.0000000296706037    0.0000000704553340 Cl
   0.4999999916177622    0.4999999860471329    0.4999998505436826 Cl
  -0.0000001632321547   -0.0000000088082198    0.4999999574638740 Cl
  -0.0000000200295922    0.5000000175912833    0.0000001338165444 Cl
