Li32 Cl32
1.0
  10.1212879173345982    0.0000000000000000    0.0000000000000006
   0.0000000000000016   10.1212879173345982    0.0000000000000006
   0.0000000000000000    0.0000000000000000   10.1212879173345982
Li Cl
32 32
direct
   0.0000000000000000    0.0000000000000000    0.0000000000000000 Li
   0.5000000000000000    0.0000000000000000   -0.0000000000000000 Li
  -0.0000000000000000    0.5000000000000000   -0.0000000000000000 Li
   0.5000000000000000    0.5000000000000000   -0.0000000000000000 Li
   0.0000000000000000    0.0000000000000000    0.5000000000000000 Li
   0.5000000000000000    0.0000000000000000    0.5000000000000000 Li
  -0.0000000000000000    0.5000000000000000    0.5000000000000000 Li
   0.5000000000000000    0.5000000000000000    0.5000000000000001 Li
  -0.0000000000000000    0.2500000000000000    0.2500000000000000 Li
   0.4999999999999999    0.2500000000000000    0.2500000000000000 Li
  -0.0000000000000000    0.7500000000000000    0.2500000000000000 Li
   0.5000000000000000    0.7500000000000000    0.2500000000000001 Li
  -0.0000000000000000    0.2500000000000000    0.7500000000000000 Li
   0.4999999999999999    0.2500000000000000    0.7500000000000001 Li
  -0.0000000000000000    0.7500000000000000    0.7500000000000001 Li
   0.5000000000000000    0.7500000000000000    0.7500000000000001 Li
   0.2500000000000000    0.0000000000000000    0.2500000000000000 Li
   0.7500000000000000    0.0000000000000000    0.2500000000000000 Li
   0.2500000000000001    0.5000000000000000    0.2500000000000000 Li
   0.7500000000000000    0.5000000000000000    0.2500000000000001 Li
   0.2500000000000000    0.0000000000000000    0.7500000000000000 Li
   0.7500000000000000    0.0000000000000000    0.7500000000000001 Li
   0.2500000000000001    0.5000000000000000    0.7500000000000001 Li
   0.7500000000000000    0.5000000000000000    0.7500000000000001 Li
   0.2500000000000000    0.2500000000000000   -0.0000000000000000 Li
   0.7500000000000000    0.2500000000000000   -0.0000000000000000 Li
   0.2500000000000001    0.7500000000000000   -0.0000000000000000 Li
   0.7500000000000000    0.7500000000000000    0.0000000000000000 Li
   0.2500000000000000    0.2500000000000000    0.5000000000000000 Li
   0.7500000000000000    0.2500000000000000    0.5000000000000001 Li
   0.2500000000000001    0.7500000000000000    0.5000000000000001 Li
   0.7500000000000000    0.7500000000000000    0.5000000000000000 Li
   0.2509880165529995    0.0000000000000000    0.0000000000000000 Cl
   0.7500000000000000    0.0000000000000000    0.0000000000000000 Cl
   0.2500000000000001    0.5000000000000000    0.0000000000000000 Cl
   0.7500000000000000    0.5000000000000000   -0.0000000000000000 Cl
   0.2500000000000000    0.0000000000000000    0.5000000000000000 Cl
   0.7500000000000000    0.0000000000000000    0.5000000000000001 Cl
   0.2500000000000001    0.5000000000000000    0.5000000000000001 Cl
   0.7500000000000000    0.5000000000000000    0.5000000000000000 Cl
   0.2500000000000000    0.2500000000000000    0.2500000000000001 Cl
   0.7500000000000000    0.2500000000000000    0.2500000000000000 Cl
   0.2500000000000001    0.7500000000000000    0.2500000000000000 Cl
   0.7500000000000000    0.7500000000000000    0.2500000000000000 Cl
   0.2500000000000000    0.2500000000000000    0.7500000000000000 Cl
   0.7500000000000000    0.2500000000000000    0.7500000000000001 Cl
   0.2500000000000001    0.7500000000000000    0.7500000000000001 Cl
   0.7500000000000000    0.7500000000000000    0.7500000000000000 Cl
   0.0000000000000000    0.0000000000000000    0.2500000000000000 Cl
   0.5000000000000000    0.0000000000000000    0.2500000000000001 Cl
  -0.0000000000000000    0.5000000000000000    0.2500000000000001 Cl
   0.5000000000000000    0.5000000000000000    0.2500000000000000 Cl
   0.0000000000000000    0.0000000000000000    0.7500000000000000 Cl
   0.5000000000000000    0.0000000000000000    0.7500000000000000 Cl
  -0.0000000000000000    0.5000000000000000    0.7500000000000000 Cl
   0.5000000000000000    0.5000000000000000    0.7500000000000001 Cl
  -0.0000000000000000    0.2500000000000000   -0.0000000000000000 Cl
   0.4999999999999999    0.2500000000000000    0.0000000000000000 Cl
  -0.0000000000000000    0.7500000000000000    0.0000000000000000 Cl
   0.5000000000000000    0.7500000000000000    0.0000000000000000 Cl
  -0.0000000000000000    0.2500000000000000    0.5000000000000000 Cl
   0.4999999999999999    0.2500000000000000    0.5000000000000001 Cl
  -0.0000000000000000    0.7500000000000000    0.5000000000000001 Cl
   0.5000000000000000    0.7500000000000000    0.5000000000000000 Cl
