Li4 Cl4
1.0
   5.1440014203807864    0.0000000000000000    0.0000000000000003
   0.0000000000000008    5.1440014203807864    0.0000000000000003
   0.0000000000000000    0.0000000000000000    5.1440014203807864
Li Cl
4 4
direct
  -0.0014592039463323    0.0025590143103312    0.0024225110508449 Li
  -0.0031199753073548    0.4971459112099716    0.4966658826119716 Li
   0.5036134976249188    0.0001702720685861    0.4998982850272601 Li
   0.5010798434744863    0.4981271317493566   -0.0003505470756011 Li
   0.4976994385121652    0.0011769940775970   -0.0018500200051491 Cl
   0.5007015084761621    0.5020618389643103    0.4997722547704818 Cl
   0.0016051022989029   -0.0023518919474262    0.4976856467970909 Cl
   0.0004274334376352    0.4995860826762591   -0.0027439711385241 Cl
