Li4 Cl4
1.0
   5.1440014203807864    0.0000000000000000    0.0000000000000003
   0.0000000000000008    5.1440014203807864    0.0000000000000003
   0.0000000000000000    0.0000000000000000    5.1440014203807864
Li Cl
4 4
direct
   0.0009656182267820   -0.0002687874474983    0.0012591142287296 Li
   0.0029607881723627    0.4995448030519672    0.4995448349683155 Li
   0.5030700085137039    0.0014919022497006    0.4990873362047006 Li
   0.5010547431838496    0.4990991104882351   -0.0009053841854029 Li
   0.5004703775364591   -0.0037194395730088   -0.0033532608013653 Cl
   0.4989069063491834    0.4980310442444251    0.5006109005556456 Cl
  -0.0017652096127415   -0.0027455352087184    0.5028492386551734 Cl
  -0.0004389118159882    0.5001312756338293   -0.0027697274354718 Cl
