Li32 Cl32
1.0
  10.1684893561990499    0.0000000000000000    0.0000000000000006
   0.0000000000000016   10.1684893561990499    0.0000000000000006
   0.0000000000000000    0.0000000000000000   10.1684893561990499
Li Cl
32 32
direct
  -0.0009482629108963    0.0006925399191521    0.0007130596601662 Li
   0.4994556216528038   -0.0001932363272214    0.0000135973485918 Li
  -0.0015529861000555    0.5009245943777761    0.0002698773734301 Li
   0.4997204368705591    0.5020532074695387   -0.0016869807688460 Li
  -0.0002801071159603   -0.0000662752766723    0.5004578599997742 Li
   0.5022975304135537   -0.0009810721164689    0.5003243613201331 Li
   0.0002932031351628    0.4991870013232358    0.4990722340896717 Li
   0.4994079230609152    0.5001163362432967    0.5010636614284232 Li
   0.0015723264803033    0.2502700430938713    0.2496524943037517 Li
   0.4981069887438770    0.2516564903206333    0.2485849824249322 Li
  -0.0018827429658553    0.7486903694629288    0.2505895445952011 Li
   0.5002202685150418    0.7494268542990669    0.2493447649031879 Li
   0.0004419084023729    0.2523187581639281    0.7503580697667935 Li
   0.5007927498578597    0.2514254249694473    0.7495953724062562 Li
  -0.0015466441870965    0.7502011202220465    0.7493793473143551 Li
   0.4979110992124943    0.7503139232557704    0.7482015185216223 Li
   0.2504078176801727   -0.0004532897645945    0.2502054149157076 Li
   0.7501566828807549    0.0002251858528207    0.2493561127389065 Li
   0.2506672296725693    0.4993682300138255    0.2494428222719121 Li
   0.7507045689022670    0.4989119588834258    0.2491883328181982 Li
   0.2502232851006360   -0.0014314519972970    0.7507342303416836 Li
   0.7495043785878353   -0.0003827367776082    0.7502734299297270 Li
   0.2487603794609874    0.5003394384034335    0.7477745137210656 Li
   0.7496511270001889    0.5002841619684099    0.7491822171298246 Li
   0.2504801308214230    0.2516384814947533    0.0003141109297049 Li
   0.7476898808519856    0.2490485409241138    0.0021858678465404 Li
   0.2515268461380831    0.7497573428233544    0.0006013404233355 Li
   0.7517076691274918    0.7519577037894020    0.0004609272295408 Li
   0.2505067940099236    0.2501461613780655    0.4999687625265761 Li
   0.7482371019228317    0.2489989454151037    0.5007799213962807 Li
   0.2490096667838103    0.7505963313808923    0.4992594754461717 Li
   0.7499577542861209    0.7503335898728384    0.5012906378887058 Li
   0.2498855497763242   -0.0006035630034195   -0.0011732409103537 Cl
   0.7492178016631158   -0.0000741890801924    0.0006959296725896 Cl
   0.2482498301754514    0.4995402980705729    0.0000683977534697 Cl
   0.7489405453541297    0.4993011361813792   -0.0000716041728618 Cl
   0.2514113964120484    0.0000251972871437    0.5017457870531619 Cl
   0.7485266796119410   -0.0000874835261114    0.5005937904985773 Cl
   0.2522944374884236    0.5003592071466717    0.4975736437294059 Cl
   0.7500862039304939    0.5008608630579743    0.4985715799819787 Cl
   0.2496933477214221    0.2496816407412191    0.2515301102447113 Cl
   0.7491110475934564    0.2502187574709854    0.2503141908969754 Cl
   0.2481294505010406    0.7499686366698751    0.2497072249707851 Cl
   0.7498757552383830    0.7485885216336995    0.2503423867311686 Cl
   0.2504353547010499    0.2495400090342519    0.7497874432358488 Cl
   0.7493174747041796    0.2486827675148515    0.7500297524089572 Cl
   0.2510026531974976    0.7519727321993369    0.7517171993585339 Cl
   0.7492651380795640    0.7505444256885756    0.7489918934465251 Cl
  -0.0019397162919934   -0.0004741663024314    0.2505940135151190 Cl
   0.4981216503914095    0.0012664655777935    0.2482339762234971 Cl
  -0.0017649118728893    0.5013515816990322    0.2496704723120694 Cl
   0.4995386243427254    0.5009261723239128    0.2495023025068998 Cl
   0.0007148899235254   -0.0006037650998803    0.7496130270747678 Cl
   0.4985647324773639   -0.0001878415943278    0.7488498217427828 Cl
   0.0005246259710391    0.5012557279555709    0.7492566655349621 Cl
   0.4991422419957529    0.4995968935859698    0.7504672903805204 Cl
  -0.0005863281817557    0.2495526585943186   -0.0020402151447600 Cl
   0.4989384097746966    0.2521623330567356   -0.0000672985528618 Cl
  -0.0018563605488784    0.7499093540456179    0.0001336668294863 Cl
   0.5003069313169395    0.7488073929406056   -0.0013743332029645 Cl
   0.0002054037313901    0.2501934197752569    0.4998800034344186 Cl
   0.4998374864948260    0.2508355907883559    0.4997616917288519 Cl
  -0.0004805263317555    0.7496747429830166    0.4991963973786508 Cl
   0.4998235159711692    0.7487848771046545    0.5014411054547764 Cl
