ALGO = Fast
EDIFF = 0.0001
ENCUT = 200
ISMEAR = 0
ISPIN = 2
KSPACING = 100.0
LCHARG = False
LMIXTAU = True
LREAL = False
LWAVE = False
MAGMOM = 2*0.6
NELM = 50
NPAR = 8
PREC = Normal
SIGMA = 0.05
