Li4 Cl4
1.0
   5.0842446780995250    0.0000000000000000    0.0000000000000003
   0.0000000000000008    5.0842446780995250    0.0000000000000003
   0.0000000000000000    0.0000000000000000    5.0842446780995250
Li Cl
4 4
direct
  -0.0004309279040919    0.0001968562195790    0.0002119485626520 Li
  -0.0003711263236403    0.5001466143220495    0.4994256745366610 Li
   0.5000168685219717   -0.0003707977404245    0.4999254589282052 Li
   0.5000496938873389    0.4998594475352967    0.0000999750480146 Li
   0.5004582133609877    0.0000766339505784    0.0001082005259086 Cl
   0.5001307019267447    0.5000206026417601    0.5000521833592232 Cl
  -0.0002094216958556    0.0002118879202839    0.4999289350797942 Cl
  -0.0001303944452437    0.5000167031163988   -0.0004983953519558 Cl
