Li32 Cl32
1.0
  10.1684893561990499    0.0000000000000000    0.0000000000000006
   0.0000000000000016   10.1684893561990499    0.0000000000000006
   0.0000000000000000    0.0000000000000000   10.1684893561990499
Li Cl
32 32
direct
   0.0022313586252221    0.0000015232069453   -0.0022504002352426 Li
   0.4985510869225783    0.0007020123296409    0.0014982582595324 Li
   0.0012189431218637    0.5022344622395720   -0.0005897566821816 Li
   0.4999207309600800    0.5007145109864697   -0.0002032897108099 Li
   0.0011923328802981   -0.0030586791596789    0.4997047780691194 Li
   0.5026211768611021    0.0011142174945078    0.4993190989223394 Li
   0.0000385734200567    0.4990126299025038    0.5008586370676428 Li
   0.4979197532393530    0.5005785978160159    0.5017119074631798 Li
  -0.0021975601517810    0.2490890713179153    0.2479753121113640 Li
   0.5023861217990662    0.2526462859346728    0.2519363127751494 Li
   0.0005100321354406    0.7496144295756497    0.2500607614942255 Li
   0.4987104683668673    0.7502517269511244    0.2509970998075298 Li
  -0.0001303947814318    0.2502901253701534    0.7498252710007629 Li
   0.4999907512732966    0.2480912687617232    0.7495747130974570 Li
   0.0014402752460893    0.7509645004442957    0.7515389415477526 Li
   0.5005129182591092    0.7481382266532509    0.7527467903197657 Li
   0.2518399314489055   -0.0005247297413303    0.2490984984514927 Li
   0.7477191959969772   -0.0018528646769576    0.2521169976109179 Li
   0.2485774269286524    0.4997465160203983    0.2495159314107516 Li
   0.7519915150750965    0.4984149996726624    0.2502190061565544 Li
   0.2519584054037618    0.0027309611285231    0.7487641854525450 Li
   0.7468816796933792    0.0002422220519304    0.7497816731628761 Li
   0.2504462611778639    0.5002538990155252    0.7495776747532326 Li
   0.7484704186732967    0.5012985510607839    0.7485025351432948 Li
   0.2486833055979019    0.2482800362506140    0.0003861537613239 Li
   0.7490538725519879    0.2501018885025500    0.0009500517075117 Li
   0.2494028376192033    0.7518789585056361    0.0000704857110051 Li
   0.7502529837616239    0.7505615376832070   -0.0006463367355947 Li
   0.2498616623413309    0.2497213890658883    0.4960339272579808 Li
   0.7506661180741434    0.2484467874070685    0.5002241786089946 Li
   0.2507822842044757    0.7497812393814905    0.5007917287519246 Li
   0.7481436001131692    0.7511862018774921    0.5009997633663250 Li
   0.2529837715290999    0.0001503737133350   -0.0002015230089805 Cl
   0.7485768479255716   -0.0002190870307096   -0.0012648284899297 Cl
   0.2514629083464879    0.4984099494448780    0.0004040123441146 Cl
   0.7493906186875637    0.4981347440344164   -0.0018660482691686 Cl
   0.2504345656309355    0.0007131256842438    0.4997641931291953 Cl
   0.7492095718199147    0.0013258696973528    0.5009564382727880 Cl
   0.2492791998469975    0.5020566892035697    0.4995325169474971 Cl
   0.7495860645030303    0.4986442478124795    0.4996330472518200 Cl
   0.2511547812766161    0.2482980157374226    0.2493351836681610 Cl
   0.7512982563381055    0.2493529365593209    0.2495821333003553 Cl
   0.2493503066475307    0.7502879174775801    0.2510314466396646 Cl
   0.7488211825571939    0.7511167658701851    0.2521093698420709 Cl
   0.2482109008298685    0.2516307240188386    0.7503796216927758 Cl
   0.7500862961229375    0.2494369579571691    0.7500495854291056 Cl
   0.2508863563687097    0.7506856202383055    0.7514815755937515 Cl
   0.7503547072785879    0.7495026494240488    0.7518127250747910 Cl
  -0.0027998303456456   -0.0006235894382459    0.2476178388639206 Cl
   0.4989388980246630   -0.0024463197795300    0.2517349496307605 Cl
  -0.0012353381092376    0.4997313779159857    0.2495524794647015 Cl
   0.4991502398085036    0.4988554378038194    0.2480849467115719 Cl
  -0.0001154957945128    0.0000387719409690    0.7525707770900715 Cl
   0.5017915836203215    0.0017444369863573    0.7486803863970197 Cl
  -0.0021598484925602    0.4973296737320906    0.7508347468389068 Cl
   0.5009449081650186    0.4977846485663519    0.7516794943846241 Cl
  -0.0005962869164186    0.2509406778510409    0.0002855137482622 Cl
   0.5000176613935361    0.2528478256440420    0.0009962899691591 Cl
   0.0011745914998815    0.7483156314817253   -0.0012892068541095 Cl
   0.4990522316634352    0.7498446733094803   -0.0026843929780334 Cl
   0.0010837871334669    0.2489736328541044    0.5023881404171834 Cl
   0.5016756684710831    0.2497727690503942    0.5016380095014635 Cl
  -0.0024332397317589    0.7514138199364870    0.5027030179981171 Cl
   0.5007549591882704    0.7500540117641171    0.4983877714427576 Cl