Li32 Cl32
1.0
   9.9142771222940738    0.0000000000000000    0.0000000000000006
   0.0000000000000016    9.9142771222940738    0.0000000000000006
   0.0000000000000000    0.0000000000000000    9.9142771222940738
Li Cl
32 32
direct
   0.0001706095232258   -0.0015957816383418   -0.0010252771991563 Li
   0.5037032014080639   -0.0000636531428768   -0.0000975892951462 Li
   0.0030050863093918    0.5012129372872479   -0.0017041556010244 Li
   0.5010030037591482    0.4991987308931763    0.0011324200209942 Li
  -0.0022453412735426   -0.0019321655702924    0.4996334776353408 Li
   0.4984668475290515   -0.0034530560162755    0.4975236196314964 Li
  -0.0005691880757358    0.4985540841140026    0.4995883477094830 Li
   0.4999866463938463    0.5020963959025960    0.4997944144958433 Li
   0.0003974963906062    0.2529704180483771    0.2496487030869763 Li
   0.4969371817499035    0.2503098452847815    0.2514317461330715 Li
   0.0040717761182165    0.7485013400384067    0.2484358595072215 Li
   0.4991249776989249    0.7502225259735188    0.2530215878044836 Li
  -0.0000129386384150    0.2500172022395242    0.7498652409852692 Li
   0.4980280997275777    0.2504843525540270    0.7495760768438836 Li
  -0.0024897795076738    0.7489918214959987    0.7492484748927504 Li
   0.4994336270373415    0.7477187458414704    0.7483357056434505 Li
   0.2501274537149037   -0.0016002708614471    0.2482431594452983 Li
   0.7493151657033542    0.0015025534989950    0.2498115738700346 Li
   0.2500033514753239    0.4974748779104355    0.2483698861493968 Li
   0.7509094178594330    0.4989676271956587    0.2501278788389667 Li
   0.2491912435000710   -0.0020325945373780    0.7498380631128126 Li
   0.7504924448121626    0.0012616785315423    0.7475199179046000 Li
   0.2512901213817028    0.5024658005565238    0.7494334562053113 Li
   0.7506249564301998    0.5017353002477219    0.7521299385684107 Li
   0.2517074519811126    0.2490587324707197   -0.0014413972293151 Li
   0.7495246001001301    0.2479891789562360   -0.0028626864608282 Li
   0.2504742942851518    0.7503341025811856    0.0020490792833309 Li
   0.7474423320736946    0.7507142297724159   -0.0001242557397587 Li
   0.2502085444216778    0.2483410980700168    0.5005630085579719 Li
   0.7481375023775144    0.2516956383423781    0.4994237337004400 Li
   0.2490443033564090    0.7503449378294419    0.4977196096807435 Li
   0.7506315212908827    0.7476355297558731    0.5000627219135226 Li
   0.2510401394861050   -0.0009619513875065   -0.0003029956845081 Cl
   0.7506228069818930   -0.0017567662719641   -0.0011167549568071 Cl
   0.2509812429678580    0.5025117871486435   -0.0017744072319703 Cl
   0.7500048084452077    0.4990186104097316    0.0007856768096380 Cl
   0.2499116835997867    0.0018927252492975    0.5004026046532599 Cl
   0.7500883455270829   -0.0005149895088332    0.4990619636759118 Cl
   0.2524726362138334    0.4994925557893147    0.4971629592276935 Cl
   0.7497375411253744    0.4987121989453039    0.4994298820786399 Cl
   0.2487995711062550    0.2501502802927273    0.2487728893552753 Cl
   0.7499412454229706    0.2496426810968559    0.2507165921605803 Cl
   0.2482389469917633    0.7491416665936269    0.2504809681518900 Cl
   0.7485130764293050    0.7499572628693081    0.2504439193328801 Cl
   0.2495699243370762    0.2506466870885539    0.7511480910104374 Cl
   0.7514137544446362    0.2505363487861856    0.7538611458927346 Cl
   0.2504867267315022    0.7484827265969428    0.7516679776755152 Cl
   0.7507644959218353    0.7533248854872239    0.7518263201275600 Cl
   0.0001145829757248   -0.0023436222003832    0.2515183544840227 Cl
   0.5023157062931990   -0.0015117840215682    0.2508746538437014 Cl
  -0.0008247101581686    0.4981849419515322    0.2493715600337366 Cl
   0.5006593656562246    0.4992321738184898    0.2485748065748147 Cl
   0.0000782102837966   -0.0005378808421129    0.7535122944277342 Cl
   0.4982588322264759    0.0024452344462927    0.7492070635320054 Cl
   0.0003889285695951    0.4989753160301633    0.7481875710774925 Cl
   0.5017355984135634    0.5023353102955748    0.7496181580404275 Cl
  -0.0008114157051564    0.2507692705754884    0.0010413931124741 Cl
   0.4984737139268812    0.2495387997990255    0.0003063911774164 Cl
  -0.0002142264904587    0.7512490632337453   -0.0011831890276215 Cl
   0.4999252392655791    0.7497339063043921   -0.0004601482229076 Cl
  -0.0014705476773233    0.2505386918298988    0.5003612118677913 Cl
   0.5027183741366132    0.2506322633653362    0.4997433025213814 Cl
   0.0010353528203017    0.7512519136986245    0.5027992974807388 Cl
   0.4982291744383359    0.7498497427005191    0.5006828037633126 Cl
