Li32 Cl32
1.0
  10.1220382892769774    0.0000000000000000    0.0000000000000006
   0.0000000000000016   10.1220382892769774    0.0000000000000006
   0.0000000000000000    0.0000000000000000   10.1220382892769774
Li Cl
32 32
direct
   0.0004907254238876   -0.0001365972911974    0.0006398795574473 Li
   0.5015046671558449   -0.0002313302598069   -0.0002313140399767 Li
   0.0015601727343596    0.5007581820056597   -0.0004638140782695 Li
   0.5005360185647200    0.4995421695911746   -0.0004601145937806 Li
   0.0002390450071922   -0.0018902124156996    0.4982958789690210 Li
   0.4994444917978261   -0.0010006197283480    0.5003104585495670 Li
  -0.0008970763097025    0.4986047240081757    0.5014479778944069 Li
   0.4997769458146332    0.5000667140379812    0.4985924295626080 Li
  -0.0005378192701582    0.2501095852303062    0.2488628835966351 Li
   0.5003711683433796    0.2494066030252473    0.2497118231116529 Li
  -0.0005944520214539    0.7518299458385480    0.2499866655071318 Li
   0.4989550415650209    0.7508126277421558    0.2487938756848367 Li
   0.0002063453911511    0.2480639570135238    0.7486878274800584 Li
   0.5001944877407523    0.2507295631165293    0.7501693021467538 Li
  -0.0001142539467676    0.7497025266186668    0.7485393040926017 Li
   0.4992888347308886    0.7495449150084247    0.7510443768300488 Li
   0.2503394753899839   -0.0017417837247568    0.2503201765890750 Li
   0.7496195605376986   -0.0006687605608280    0.2506043014967537 Li
   0.2510185690796963    0.5009200519623628    0.2491709006632471 Li
   0.7496945157022582    0.5003272694905277    0.2509637832808395 Li
   0.2495266030179386   -0.0001834205437264    0.7489070037650636 Li
   0.7488182156697153    0.0008027294495171    0.7513398882614457 Li
   0.2499288580822139    0.5009914336117015    0.7503572758911914 Li
   0.7493626582550189    0.5003570383703164    0.7515194929346347 Li
   0.2499646059043780    0.2515457792305246   -0.0025881596465260 Li
   0.7508119930797393    0.2500859975686225   -0.0002954023111952 Li
   0.2500906544451948    0.7480363945899052   -0.0002170233717355 Li
   0.7503528069755375    0.7514600755327184   -0.0005120215943292 Li
   0.2492012541547588    0.2495042924861131    0.5009043653971074 Li
   0.7503247874590711    0.2494766269513836    0.5005070791262042 Li
   0.2500959071153196    0.7509569663370655    0.4993064113434334 Li
   0.7496762883746990    0.7496126193737601    0.4985541301995640 Li
   0.2502925500463461    0.0002579078093949    0.0000050518052751 Cl
   0.7497682412112351   -0.0013983060541767   -0.0004155737320328 Cl
   0.2496614174865453    0.4992073955400153   -0.0001593411396565 Cl
   0.7503991793404322    0.5018634447403826    0.0001724729820641 Cl
   0.2502544451852109   -0.0000735483443538    0.4981043628165961 Cl
   0.7499738057941575    0.0000595040329030    0.5024335435631524 Cl
   0.2498099582719570    0.5002979116791655    0.4999657067393806 Cl
   0.7488454123525121    0.5011290441528221    0.5007428672083598 Cl
   0.2507814947191822    0.2491015767488667    0.2513858812532078 Cl
   0.7486150506224841    0.2505797815390818    0.2521640459788918 Cl
   0.2490214062653961    0.7494405299472113    0.2500984498993578 Cl
   0.7495025945963375    0.7484680324389712    0.2500677363321956 Cl
   0.2489505041540383    0.2504678824729766    0.7490916609797772 Cl
   0.7515312473246216    0.2492261901506873    0.7496818214800205 Cl
   0.2508037088915495    0.7487839758344540    0.7502247175204276 Cl
   0.7512913829378287    0.7484118976942969    0.7501824077851273 Cl
   0.0002567494676677    0.0007723966748926    0.2487779628217880 Cl
   0.4986954637244524    0.0005156486773715    0.2502934040207571 Cl
   0.0002474727354186    0.5003422711904418    0.2493281741264514 Cl
   0.5002294534860700    0.5002895389890087    0.2492942612963801 Cl
   0.0018432794441425    0.0004681200637363    0.7488230596811070 Cl
   0.5006486377445630   -0.0009629302343777    0.7507775949677805 Cl
   0.0011446267499648    0.4991892123948778    0.7509517610008103 Cl
   0.5004078041547952    0.5008121488345536    0.7518739239355212 Cl
  -0.0002424295472808    0.2492553513997709   -0.0008787898288903 Cl
   0.4991940256876622    0.2499238278820820    0.0003370388108273 Cl
   0.0002733548238235    0.7508172101560928    0.0000128451320834 Cl
   0.5014360092657394    0.7497385340524561    0.0026873729271221 Cl
   0.0006181238698018    0.2491531769274926    0.4989420189220231 Cl
   0.5004766553943528    0.2497792314364562    0.5007053920106669 Cl
   0.0004675319447022    0.7499280491630482    0.4991634158122426 Cl
   0.4985034168204137    0.7495588685407955    0.5008460734585747 Cl
