ALGO = Normal
EDIFF = 1e-05
ENAUG = 1360.0
ENCUT = 700.0
GGA = Ps
ISMEAR = 0
ISPIN = 1
KPOINT_BSE = -1 0 0 0
LAECHG = False
LASPH = True
LCHARG = False
LELF = False
LMIXTAU = True
LREAL = False
LVTOT = False
LWAVE = False
NELM = 200
NPAR = 4
NSW = 0
PREC = Accurate
SIGMA = 0.05
LOPTICS = False
