Li4 Cl4
1.0
   5.0606428992184256   -0.0000000000000000    0.0000000000000003
   0.0000000000000008    5.0606428992184256    0.0000000000000003
  -0.0000000000000000   -0.0000000000000000    5.0606428992184256
Li Cl
4 4
direct
   0.0000000000000000    0.0000000000000000    0.0000000000000000 Li
   0.0000000000000000    0.5000000000000000    0.5000000000000000 Li
   0.5000000000000000    0.0000000000000000    0.5000000000000000 Li
   0.5000000000000000    0.5000000000000000    0.0000000000000000 Li
   0.5000000000000000    0.0000000000000000    0.0000000000000000 Cl
   0.5000000000000000    0.5000000000000000    0.5000000000000000 Cl
   0.0000000000000000    0.0000000000000000    0.5000000000000000 Cl
   0.0000000000000000    0.5000000000000000    0.0000000000000000 Cl
