Li32 Cl32
1.0
  10.2056952920104589    0.0000000000000000    0.0000000000000006
   0.0000000000000016   10.2056952920104589    0.0000000000000006
   0.0000000000000000    0.0000000000000000   10.2056952920104589
Li Cl
32 32
direct
  -0.0007354861141538    0.0012898262068850    0.0012210241370022 Li
   0.4984274312574127   -0.0014385533145686   -0.0016805032963467 Li
   0.0018213199966569    0.5000858226448661   -0.0000512676451017 Li
   0.5005442761328466    0.4990560136604276   -0.0001766870951177 Li
  -0.0011595576021518    0.0005932431876227    0.4990675299171757 Li
   0.5003535830234528    0.0010392337079975    0.4998852090180426 Li
   0.0008090236156548    0.4988145701814541    0.4988334909261549 Li
   0.5002154403151772    0.4997913722445829    0.4986169495531479 Li
  -0.0004732465566754    0.2511775406260884    0.2493084223932744 Li
   0.5000246738257395    0.2496167550141244    0.2501892464138825 Li
   0.0003422509902077    0.7505792730090504    0.2505099210340894 Li
   0.5008085900720208    0.7504176133962467    0.2501916969106191 Li
  -0.0005037502722826    0.2469882612332488    0.7496128053414920 Li
   0.4992206320478871    0.2493109714805873    0.7482976243878275 Li
   0.0007356757540811    0.7481736147404744    0.7504100759158615 Li
   0.4997694093048763    0.7504233980751183    0.7508527512388816 Li
   0.2519681385044705    0.0013441229318526    0.2510372618977406 Li
   0.7514162068558830    0.0000478392593971    0.2500885089332044 Li
   0.2495294227399314    0.5002946028927892    0.2510905477739410 Li
   0.7499810742476082    0.4999992086787070    0.2493743393122129 Li
   0.2515625425999663    0.0000182378430042    0.7505500935055910 Li
   0.7498055234689995    0.0004538716263769    0.7482175697695100 Li
   0.2501302457259476    0.4993953575720311    0.7512818132098634 Li
   0.7507602007412149    0.4997254764235396    0.7492906532164745 Li
   0.2490757023293220    0.2505503654841527   -0.0006788294393815 Li
   0.7516674606967825    0.2489694748128602   -0.0006478260793404 Li
   0.2490094749242362    0.7485705229570072    0.0003826817499092 Li
   0.7492058902624654    0.7511343391115797    0.0000311229326176 Li
   0.2481413041877049    0.2491524820907738    0.4999439553164440 Li
   0.7512062067490304    0.2494772022063638    0.4996707972040902 Li
   0.2484756317300709    0.7511940771475113    0.4977878599332585 Li
   0.7502165632318823    0.7499459403327254    0.5002755172379068 Li
   0.2505865800064203    0.0010064717125386    0.0000068020562626 Cl
   0.7482820281426130    0.0015180057136398   -0.0006323692805350 Cl
   0.2508616151436477    0.4996880351013528    0.0007126980434921 Cl
   0.7499357401187251    0.4995580386426359    0.0008363274464646 Cl
   0.2475154242930901   -0.0003796737947013    0.4999793497813727 Cl
   0.7503098486831677   -0.0006171216521328    0.4980602188817116 Cl
   0.2502711081523549    0.4987884767561135    0.5005617791062265 Cl
   0.7503120666545762    0.4999228669035094    0.5014474204120841 Cl
   0.2511053916503740    0.2489371529442024    0.2481861824895902 Cl
   0.7513062689741482    0.2521957482233830    0.2492327142577866 Cl
   0.2502386351765232    0.7490103047238719    0.2492968063574235 Cl
   0.7528423817285302    0.7503781575606148    0.2500390175994230 Cl
   0.2501053438446725    0.2487413540249048    0.7503350875626170 Cl
   0.7517948925322381    0.2514201316742472    0.7494825224331245 Cl
   0.2491077111928326    0.7506380771153779    0.7500160186359542 Cl
   0.7498659698008023    0.7492380190275385    0.7507807696571452 Cl
   0.0000375394628128   -0.0000588584397900    0.2500073370771166 Cl
   0.5003770301411145   -0.0010060258364630    0.2489418631829251 Cl
  -0.0025225240969279    0.5002984591223528    0.2518543347322548 Cl
   0.5009957666265780    0.4999571415796991    0.2488657547951446 Cl
  -0.0003876724759555   -0.0006566155122747    0.7503133402970096 Cl
   0.4997103768907681    0.0003991595753464    0.7495641758546101 Cl
  -0.0013628439447886    0.5016418394382486    0.7486471997449810 Cl
   0.4987489753809637    0.4992395809992042    0.7494186933823471 Cl
   0.0007402219774250    0.2503535677853206   -0.0004832261950650 Cl
   0.5004664060499974    0.2521597333539174    0.0003592764349700 Cl
   0.0002103845627283    0.7506921028759083   -0.0008856821518710 Cl
   0.5027391252790514    0.7514862367277512   -0.0005598649146781 Cl
   0.0005479538760982    0.2479435292208948    0.5003197269226870 Cl
   0.5000020540320059    0.2503750507577907    0.4993612253411400 Cl
   0.0010643204617018    0.7490751502079668    0.5011719058618681 Cl
   0.4995929666073401    0.7481809979682723    0.4995097896039126 Cl
