Li32 Cl32
1.0
  10.0369751223505350    0.0000000000000000    0.0000000000000006
   0.0000000000000016   10.0369751223505350    0.0000000000000006
   0.0000000000000000    0.0000000000000000   10.0369751223505350
Li Cl
32 32
direct
   0.0005827212210261    0.0012266601495294    0.0008188724730133 Li
   0.4992037159129579    0.0004105352711810   -0.0001755076724487 Li
  -0.0000729024120757    0.4994364174638904   -0.0000931209270230 Li
   0.5008541428792271    0.4991409530503961    0.0000164203849663 Li
   0.0015593453906663   -0.0004673918884828    0.4996091444617046 Li
   0.5008136584869393    0.0000760939339508    0.4999002756233272 Li
   0.0016177753749514    0.4986683820255948    0.4998653655590614 Li
   0.4995234214762642    0.4984109006864822    0.4991342418323928 Li
  -0.0000326023004883    0.2484781953835906    0.2498758609363235 Li
   0.4997390158315850    0.2509916844414049    0.2503163735573550 Li
  -0.0000381194968167    0.7499320532532061    0.2495593534611011 Li
   0.4995224689074734    0.7500513248039072    0.2490286781809755 Li
  -0.0014279010882147    0.2496423029415732    0.7504526226090771 Li
   0.4991974693707926    0.2473157205797007    0.7504992425803934 Li
  -0.0000046178840786    0.7496085091021244    0.7498453117913072 Li
   0.5004480481337016    0.7511832185675242    0.7496666422510689 Li
   0.2498851884279807    0.0018298350944678    0.2507259036293726 Li
   0.7488720594807166   -0.0014129691572851    0.2521532138715419 Li
   0.2482504029234026    0.5007086546624796    0.2493111032512305 Li
   0.7502561095723290    0.5010411618624914    0.2480849338629431 Li
   0.2498539251253764    0.0013582287743011    0.7509541828411712 Li
   0.7520565593014514   -0.0008558598838854    0.7496042675414166 Li
   0.2498178159295675    0.5002714601528905    0.7494311828952387 Li
   0.7494922841592084    0.4995739214470505    0.7501473477094374 Li
   0.2502689593210939    0.2494556734064320    0.0001236162731361 Li
   0.7517734205305164    0.2487198470305133    0.0010746065502924 Li
   0.2502139440493820    0.7495805284761639   -0.0001400080025448 Li
   0.7489681604174293    0.7498501290100013   -0.0019996532466134 Li
   0.2499854541933261    0.2499114443086753    0.5014020834473587 Li
   0.7496591066806371    0.2492643660417634    0.4993469635557999 Li
   0.2487694398082350    0.7512377442865923    0.5001317719520594 Li
   0.7506134560253329    0.7511796234884530    0.4993839621177737 Li
   0.2496958093603233    0.0003256249463580    0.0001805279345804 Cl
   0.7490479106403399   -0.0002069486301461   -0.0005507009056114 Cl
   0.2502928408853472    0.4980349486981109    0.0010729926961143 Cl
   0.7489858540733457    0.4994014002307193   -0.0004452553944042 Cl
   0.2497944781010364   -0.0004035036121934    0.5001672832844175 Cl
   0.7496446854619812    0.0020620771833599    0.4997714827764400 Cl
   0.2502817363484809    0.4980330641699124    0.4999499498935128 Cl
   0.7491745303921308    0.5019711974238137    0.5001884507603716 Cl
   0.2508275024008549    0.2512785554018488    0.2520297800405811 Cl
   0.7480532394433569    0.2504035319466662    0.2504467749482269 Cl
   0.2511017326949347    0.7495534467254578    0.2496567445916588 Cl
   0.7500618480180320    0.7506681556741169    0.2507477978619673 Cl
   0.2481811590429347    0.2495005038921988    0.7500944598601611 Cl
   0.7496080063400262    0.2513181154665529    0.7505689712164594 Cl
   0.2495004641656869    0.7495753766813980    0.7507819059941636 Cl
   0.7514227821184732    0.7500444705885899    0.7491496478487445 Cl
   0.0007615847815694   -0.0019403281776347    0.2492356130653678 Cl
   0.5010724019710904   -0.0007620984218421    0.2508415080314892 Cl
   0.0013715800021767    0.5018389558082548    0.2505890210787278 Cl
   0.5013958907431405    0.5010454476532554    0.2487472469790652 Cl
   0.0011863296634512   -0.0002599670553887    0.7494561331245597 Cl
   0.4984095135555774   -0.0010493249053155    0.7501442255436011 Cl
   0.0016905400716634    0.5015112656320994    0.7503940532254860 Cl
   0.4995084594597995    0.5018024409710925    0.7498018768835368 Cl
  -0.0010213828983164    0.2516334488188248   -0.0007298340000659 Cl
   0.5004817921772020    0.2492820777863247   -0.0000477627499013 Cl
   0.0006688502846012    0.7490130578968265    0.0001134696983003 Cl
   0.5012037773646087    0.7524798365747380    0.0010032954857968 Cl
   0.0015198327456588    0.2497067370087689    0.4996307786995765 Cl
   0.5018658765968516    0.2515348303656271    0.5006423555638000 Cl
  -0.0012065442459575    0.7497716655141188    0.5001952042976687 Cl
   0.4996196334944116    0.7506296413374417    0.4998360190228139 Cl
