Li32 Cl32
1.0
  10.1684893561990499    0.0000000000000000    0.0000000000000006
   0.0000000000000016   10.1684893561990499    0.0000000000000006
   0.0000000000000000    0.0000000000000000   10.1684893561990499
Li Cl
32 32
direct
  -0.0016572138793382    0.0006018895534120    0.0016598267209305 Li
   0.4979636770820552   -0.0001348497075483    0.0011920047837043 Li
   0.0008819290963379    0.5018314272786443   -0.0012142141112847 Li
   0.4997844814635156    0.5010756775249277   -0.0037833139123685 Li
  -0.0019183702385503   -0.0005542264231979    0.5020660164459824 Li
   0.5025361364892421    0.0003876894103264    0.5005893831318023 Li
  -0.0009376839575114    0.4983823644291656    0.4995462976518418 Li
   0.4996815321241334    0.5022012383723733    0.5008167377860953 Li
   0.0044575860720609    0.2505764965143964    0.2490426539371123 Li
   0.4979900900197918    0.2488020720011843    0.2499119387055634 Li
  -0.0010367406472324    0.7463780786726917    0.2515547490909865 Li
   0.4995385552036500    0.7487924661143790    0.2482537266287967 Li
   0.0016667461840296    0.2503974316573588    0.7490945839247939 Li
   0.5003059148462001    0.2509315458884164    0.7507800788885107 Li
  -0.0018970260159637    0.7510050677903212    0.7494411910319195 Li
   0.5004631533982213    0.7509503702855026    0.7491653944849049 Li
   0.2496024898804780   -0.0008849866341974    0.2500411641074262 Li
   0.7507317647971311   -0.0021931583421851    0.2500529608976826 Li
   0.2503802103971504    0.5000398085791665    0.2489701896773558 Li
   0.7518341959869189    0.4989108385190980    0.2475760336927944 Li
   0.2508630024866301   -0.0005432256066627    0.7501511544128296 Li
   0.7501316454686683    0.0002192889232076    0.7490506037630749 Li
   0.2483604953758102    0.5000109865754510    0.7460129137956191 Li
   0.7482373725426732    0.5016644663001454    0.7504221046475053 Li
   0.2493684739219156    0.2531080271057715    0.0018238510493665 Li
   0.7468966891379534    0.2475541459838508    0.0017275163596233 Li
   0.2523255754968680    0.7500831819976794    0.0009608640544205 Li
   0.7525799600453457    0.7517179035914965    0.0013396335168566 Li
   0.2505056865284914    0.2471183661379444    0.4987560208942097 Li
   0.7476460828161118    0.2484524922731309    0.5012456434328171 Li
   0.2494484595139521    0.7521729148730777    0.4986177802265425 Li
   0.7486329225849195    0.7507393610167804    0.5009314295885626 Li
   0.2495365659989213   -0.0016683976836745   -0.0017272381675540 Cl
   0.7502814863473782   -0.0019464338528221   -0.0014468222419595 Cl
   0.2488550019821441    0.4984583406679355   -0.0007347549919071 Cl
   0.7480557362819863    0.5009333375087057    0.0015147823555397 Cl
   0.2507752502562854    0.0019153740877980    0.5007234894384732 Cl
   0.7471615383754977   -0.0043708159729256    0.5009874240621965 Cl
   0.2532700779375467    0.4999755227447605    0.4971707758387455 Cl
   0.7473141582916785    0.5021307933211029    0.4992942250129908 Cl
   0.2477482898411140    0.2510032244664177    0.2508954184739781 Cl
   0.7506828568123717    0.2520114901903814    0.2488918368865461 Cl
   0.2473965890611211    0.7518103998664251    0.2490320166846326 Cl
   0.7507407260687505    0.7505352004577390    0.2508221498025082 Cl
   0.2485054267622305    0.2483820242599818    0.7509550599081382 Cl
   0.7477879141175464    0.2484409936880637    0.7511607374502128 Cl
   0.2497863258521172    0.7504092520678998    0.7501034483402866 Cl
   0.7463834083106072    0.7505129869364330    0.7479557250578657 Cl
  -0.0032152596141010   -0.0004308339700774    0.2541343728461137 Cl
   0.4960735000711434    0.0009412617674294    0.2510735911990537 Cl
   0.0005816702325601    0.5011317564771398    0.2501218717854082 Cl
   0.5000472425159828    0.5015123365703406    0.2501538684320379 Cl
   0.0011828198313249    0.0015813323500259    0.7491183321471089 Cl
   0.4997698701520071   -0.0002046855384833    0.7510758973474320 Cl
   0.0011148946764239    0.4989079517997277    0.7489931901639457 Cl
   0.4985986763697139    0.4994555015225422    0.7490569488795221 Cl
  -0.0032008295962200    0.2502328160051197   -0.0030374228081380 Cl
   0.5000007335498439    0.2527178440074951    0.0014807844312555 Cl
  -0.0040351510083677    0.7513120670138136   -0.0004316036173493 Cl
   0.5007169287565519    0.7475480669529982   -0.0002448475905081 Cl
  -0.0021801914547647    0.2503459437856565    0.5002339474552479 Cl
   0.5010539054839064    0.2493900271387018    0.4976118060063350 Cl
   0.0007380378262475    0.7494556525257466    0.5002166546677724 Cl
   0.4997310609038111    0.7479403782284876    0.5023583045359835 Cl
