Si6
1.0
   5.4241875700000000   -0.0001859800000000    0.0003484900000000
   2.7118582999999998    4.6624767900000004    1.2062569500000000
   2.7124731999999998    2.4013032100000000    4.1733199900000004
Si
6
direct
   0.1531734896721187    0.7876166091395348    0.9059769705942405 Si
   0.8468265200247058    0.2123837209481869    0.0940226800019295 Si
   0.6532535409037719    0.9057324404556844    0.7877853086778039 Si
   0.3467465600511930    0.0942673203730284    0.2122147101242159 Si
   0.7499074007664899    0.5000106091500321    0.5000444603839129 Si
   0.2500924793636841    0.4999892999326352    0.4999558702189262 Si
