pymatgen with grid density = 980 / number of atoms
0
Gamma
4 4 4
