ALGO = Normal
EDIFF = 1e-07
ENAUG = 1360.0
ENCUT = 700
GGA = Ps
ISMEAR = 0
ISPIN = 1
LAECHG = False
LASPH = True
LCHARG = True
LELF = False
LMIXTAU = True
LORBIT = 11
LREAL = False
LVTOT = True
LWAVE = False
NELM = 200
NPAR = 4
NSW = 0
PREC = Accurate
SIGMA = 0.05
