Si10
1.0
   5.4298625200000004   -1.4582122300000000   -0.1662530600000000
   1.4634458400000001    5.4522952800000004   -0.0138557900000000
   0.1419824300000000   -0.0235683100000000    4.7364184600000003
Si
10
direct
   0.6489913905093428    0.2925034692419511    0.7506262403237742 Si
   0.4414528110184508    0.7008699395336341    0.7490933893068455 Si
   0.2500147297753855    0.0982920702789947    0.7506030005960835 Si
   0.8506040696178555    0.9041636507134558    0.7488728690353808 Si
   0.8508200896575978    0.7955649596303896    0.2493824995410239 Si
   0.0588058404252475    0.2053053501312589    0.2510712807106710 Si
   0.2502071894387712    0.6018631102674601    0.2494804100866561 Si
   0.6486062907358655    0.4074352505557538    0.2505401492418778 Si
   0.4414517206309034    0.9991585307321849    0.2503341607564983 Si
   0.0590458709668126    0.4948436595291579    0.7499959909703301 Si
