Li32 Cl32
1.0
  10.1220382892769774    0.0000000000000000    0.0000000000000006
   0.0000000000000016   10.1220382892769774    0.0000000000000006
   0.0000000000000000    0.0000000000000000   10.1220382892769774
Li Cl
32 32
direct
  -0.0008377852874401    0.0012901614483443    0.0009130650762279 Li
   0.5006326905539484   -0.0010420203448991    0.0017760856694545 Li
  -0.0010005758934549    0.5008136931523115   -0.0002910978450489 Li
   0.4994146726631735    0.4986230766779687    0.0010908669184687 Li
  -0.0009210993470429   -0.0009317850909895    0.5004313422052178 Li
   0.5007853737037113    0.0007108579637665    0.5000866053398186 Li
  -0.0013068004372787    0.5000511695148249    0.4981873263020558 Li
   0.5003235479493653    0.5004704953891275    0.5001663979534566 Li
  -0.0008520135040608    0.2508965037204438    0.2504177907260288 Li
   0.4978142456191057    0.2483657385067392    0.2503175005415123 Li
  -0.0004570960320944    0.7489322800660656    0.2496900089382225 Li
   0.4989944200389523    0.7504934013144967    0.2499704148115136 Li
   0.0000465223537515    0.2488432579207730    0.7481105314594829 Li
   0.5002682683191474    0.2503181822567660    0.7488826359601451 Li
   0.0001559578571696    0.7490906993931077    0.7492630833263983 Li
   0.4997982490445023    0.7519426767274086    0.7508134192822499 Li
   0.2489552657771440    0.0005444055338514    0.2502708182308467 Li
   0.7503628680842578    0.0001935275572146    0.2498878400742603 Li
   0.2479362584870099    0.4990718622857689    0.2502725215779174 Li
   0.7504224513335576    0.5004117217505806    0.2502981157598869 Li
   0.2481064448590802   -0.0001779014828371    0.7512543364253066 Li
   0.7474553714983296    0.0005509623629250    0.7523602172108098 Li
   0.2500622629144368    0.5002916476511954    0.7509304391154880 Li
   0.7499727846029843    0.5010086230436720    0.7477810290753526 Li
   0.2495976843037827    0.2521652877667543    0.0019828987822685 Li
   0.7514119164055995    0.2510762762818218   -0.0007775814673744 Li
   0.2499249946021257    0.7511398739726017    0.0003840569829247 Li
   0.7508667053110301    0.7513743348684992    0.0002315025035799 Li
   0.2498589047887485    0.2499433400118381    0.5005418167199444 Li
   0.7505642921078272    0.2496491738025483    0.4982672931360979 Li
   0.2505204540378066    0.7498825204326653    0.4995000576033244 Li
   0.7498294257517336    0.7497103119401618    0.4978877066379823 Li
   0.2509760812296839    0.0008105942586710    0.0005741174462035 Cl
   0.7517560206504289   -0.0009727243031857    0.0003983392051055 Cl
   0.2509216090531762    0.5000341433208644    0.0003580617321767 Cl
   0.7495796539235207    0.5007264151934299   -0.0005429109212399 Cl
   0.2498899217852929    0.0022383342591125    0.5014288253856047 Cl
   0.7499603903569024   -0.0008224359289994    0.4994741785974084 Cl
   0.2517386530910602    0.5002113798443392    0.5008009643508555 Cl
   0.7494692579140491    0.4995336530956118    0.5003691482855454 Cl
   0.2510684475884278    0.2522856237204412    0.2492022931891132 Cl
   0.7490065024805294    0.2488994440719185    0.2513326644653078 Cl
   0.2510848298225042    0.7485641775750158    0.2499807263488340 Cl
   0.7499363232553979    0.7508233886560136    0.2491821128698781 Cl
   0.2483413077256022    0.2488635281523889    0.7521560039186526 Cl
   0.7508874914858259    0.2503800148455723    0.7501513547357441 Cl
   0.2496361073254529    0.7501569774017701    0.7504841292332062 Cl
   0.7505941762478127    0.7504878596513261    0.7489940619062694 Cl
  -0.0002065548507736    0.0010764989789523    0.2492721059837115 Cl
   0.5004863365404274    0.0005351698918289    0.2504987508502386 Cl
   0.0015380598397025    0.4999494843228475    0.2499790477853715 Cl
   0.4998183607446631    0.5002476497551156    0.2494797650636697 Cl
   0.0002144918594409   -0.0001747468987436    0.7504873216518506 Cl
   0.4994364902495012    0.0004550349757071    0.7500380039046337 Cl
  -0.0009563569032847    0.5002520509077153    0.7490332226714758 Cl
   0.5016562176259718    0.4992988329021426    0.7529164732844077 Cl
  -0.0003016177893814    0.2527951296937161   -0.0001772828709449 Cl
   0.5005645075138592    0.2499886928695317    0.0002477281531862 Cl
  -0.0022243869865852    0.7495679602334093   -0.0011225471495684 Cl
   0.5000447130765907    0.7496787170711563   -0.0015878291457168 Cl
   0.0002350793809027    0.2505211934191207    0.5004490513446882 Cl
   0.4997630474643239    0.2517214647764813    0.5001420016698440 Cl
  -0.0014508720905036    0.7497590471003898    0.4994950800254713 Cl
   0.5012657213844509    0.7503701864512616    0.4993009172248070 Cl
