pymatgen with grid density = 1304 / number of atoms
0
Gamma
2 2 2
