Li32 Cl32
1.0
  10.6769138240090022    0.0000000000000000    0.0000000000000006
   0.0000000000000017   10.6769138240090022    0.0000000000000006
   0.0000000000000000    0.0000000000000000   10.6769138240090022
Li Cl
32 32
direct
  -0.0013604990174276   -0.0008469595244382    0.0015301329357252 Li
   0.4996021798848052   -0.0003877121288488    0.0007833065284492 Li
  -0.0013531427717082    0.4999565792996932    0.0021495956374789 Li
   0.4993155304455573    0.5009833416190621   -0.0010857751599824 Li
   0.0006080424046344   -0.0008664033434050    0.5013089590986417 Li
   0.4993980198882232   -0.0003894414663885    0.4991626328224057 Li
  -0.0016445586918041    0.4983237998767129    0.5019448525597403 Li
   0.4987843072876642    0.5014812221610082    0.5016841448840217 Li
   0.0005642321602321    0.2510045337534491    0.2488267957509487 Li
   0.4989169021760184    0.2507708832897405    0.2470303615245238 Li
   0.0023944611564609    0.7506244178516905    0.2523609613901442 Li
   0.5007291423286956    0.7475514602498098    0.2496290765261521 Li
   0.0024965325873289    0.2516346805985946    0.7474400621773222 Li
   0.4993366622879071    0.2496530460989806    0.7515694345827592 Li
  -0.0007400662744154    0.7529191397610108    0.7511714403852788 Li
   0.5009332900157335    0.7517763333885392    0.7503343447928589 Li
   0.2490477882040289    0.0001069420886893    0.2488060789994688 Li
   0.7509274364383636   -0.0009130655502920    0.2508611123067537 Li
   0.2502925380324023    0.4997221066906262    0.2491467090155308 Li
   0.7490144700028402    0.4999483240577509    0.2479008239908838 Li
   0.2500769370219593   -0.0010732173615873    0.7522857676732810 Li
   0.7488615027834015   -0.0010894996582395    0.7515179150347803 Li
   0.2488953251857727    0.4980004414627355    0.7507884056065637 Li
   0.7498795944029606    0.4995646075715562    0.7519544339188060 Li
   0.2477817394124843    0.2501702821676952    0.0000406037693765 Li
   0.7499424952692505    0.2499941248178787   -0.0000189446718729 Li
   0.2497380320676611    0.7500991154327198    0.0008513838532671 Li
   0.7486827569379704    0.7477903576161244    0.0008315532427753 Li
   0.2488996181888502    0.2512048256082414    0.5004799509686979 Li
   0.7485374940146029    0.2515131881113542    0.4994007044447143 Li
   0.2501362498434013    0.7526413510701625    0.4986204179286576 Li
   0.7461260398799435    0.7492356092007315    0.5002947541721676 Li
   0.2473100751700087   -0.0005426202457430    0.0004356029686105 Cl
   0.7510883270588850    0.0021276407297819   -0.0018484753014475 Cl
   0.2511222649063847    0.5013504598958325   -0.0006082548155397 Cl
   0.7505242558857851    0.5017160639013709   -0.0003540420422595 Cl
   0.2497316236238731    0.0029817358154867    0.4987272792383607 Cl
   0.7507314921703205    0.0028537173721451    0.4990413713316937 Cl
   0.2495132241086273    0.5008706265276579    0.4992623850228738 Cl
   0.7510548132020366    0.5012384177733138    0.5005864111787431 Cl
   0.2506542587292633    0.2492802533516399    0.2500590553201829 Cl
   0.7500968621349721    0.2530138414455086    0.2504628015818809 Cl
   0.2484130766496104    0.7505973166542301    0.2501884566601977 Cl
   0.7508859242758030    0.7497453879902336    0.2515811890099766 Cl
   0.2507793230271144    0.2508370049665969    0.7495393920132778 Cl
   0.7500068855462859    0.2502162389836153    0.7488267445342360 Cl
   0.2490916745849629    0.7501376594124061    0.7514318167365167 Cl
   0.7520717070403380    0.7505273526129761    0.7520334063054855 Cl
   0.0009448969090378   -0.0006697490765907    0.2497495207377688 Cl
   0.4989127126719234    0.0011779059350970    0.2492103786776562 Cl
   0.0002887292951880    0.5008410684615034    0.2490406467217695 Cl
   0.4986746038729311    0.4988093999813196    0.2470376885807513 Cl
  -0.0006612447788516    0.0003767001952902    0.7500845159742315 Cl
   0.5016693254971257   -0.0024743211681442    0.7491957018106726 Cl
   0.0018115764854011    0.5001081279686519    0.7519709866307499 Cl
   0.4990557484517741    0.4988327354711797    0.7497366082248852 Cl
  -0.0012180159406809    0.2495478634241088    0.0010382769664826 Cl
   0.5002610306261830    0.2498705635853153   -0.0005714858514242 Cl
  -0.0028411431079377    0.7490881360476812    0.0001949517254594 Cl
   0.4999215067780597    0.7488941506500678   -0.0020782781612739 Cl
  -0.0012909415110250    0.2498547031249086    0.4980266744726539 Cl
   0.5015551444750203    0.2492782374704813    0.4992245895860955 Cl
  -0.0000338890632415    0.7504335905890893    0.4986365614044123 Cl
   0.4968735308325521    0.7513444047137372    0.4982144322716854 Cl
