Si8
1.0
   5.2690548300000000   -0.0000000100000000   -0.0000023600000000
   0.0000000100000000    5.0123979500000004    0.0000021000000000
  -2.6345324099999998   -2.5061992000000002    4.9634458800000001
Si
8
direct
   0.6433901194112984    0.2384572602634721    0.7501451305520098 Si
   0.3566098809042173    0.4883119403778842    0.2498548500632074 Si
   0.1067555001873197    0.2384571698352227    0.7501449398664389 Si
   0.8932444906388236    0.4883120407813946    0.2498550407487696 Si
   0.6461903488861747    0.7372854790236857    0.7483076992288505 Si
   0.3538096498007208    0.9889776198373031    0.2516923198803513 Si
   0.1021178806861896    0.7372854594409669    0.7483076702145353 Si
   0.8978821303953188    0.9889776304521259    0.2516923509094057 Si
