Sn64
1.0
  13.0800188327081450    0.0000000000000000    0.0000000000000008
   0.0000000000000022   13.0800188327081450    0.0000000000000008
   0.0000000000000000    0.0000000000000000   13.0800188327081450
Sn
64
direct
   0.2503797503347389    0.2498942934999257    0.0004951740103623 Sn
   0.7511643942381792    0.2498209839162174   -0.0001790035319855 Sn
   0.2512073475089794    0.7505867229542772   -0.0003589248547265 Sn
   0.7504148006593302    0.7496457056379355   -0.0003560619900681 Sn
   0.2501849861798065    0.2485372496254566    0.4986812573784682 Sn
   0.7495701171868078    0.2492256653959842    0.5002402499083637 Sn
   0.2493057929907176    0.7489202586636927    0.5011205249684019 Sn
   0.7498273883980029    0.7500516269934711    0.4989107445452213 Sn
   0.1245838058557195    0.3750848030810418    0.3741200367582468 Sn
   0.6252872304873185    0.3745407967697899    0.3747769928671174 Sn
   0.1245399803165996    0.8764161127810282    0.3749896810356999 Sn
   0.6241913536650950    0.8756288560610066    0.3740666346389975 Sn
   0.1251596814176463    0.3735017834080029    0.8739845687029308 Sn
   0.6251505053153108    0.3755645760831389    0.8751310153168599 Sn
   0.1249115840092684    0.8747697987293133    0.8738696331333483 Sn
   0.6244496611835186    0.8746478301928677    0.8758081962570080 Sn
   0.2502627047361042   -0.0013478880863337    0.2502477702620614 Sn
   0.7497055950107248   -0.0005175237199302    0.2504676417493462 Sn
   0.2507882247997364    0.5007119868335261    0.2493583973127591 Sn
   0.7497635994414029    0.5002532591394862    0.2507458285340406 Sn
   0.2496336593670285   -0.0001419409092895    0.7491541793722500 Sn
   0.7490854702585829    0.0006211962175180    0.7510368792628795 Sn
   0.2499449464694957    0.5007672258814968    0.7502764797433955 Sn
   0.7495067898885650    0.5002762959366730    0.7511758672415821 Sn
   0.1249726101012788    0.1261962090237221    0.1229971396543109 Sn
   0.6256283649243073    0.1250665496505406    0.1247714014373449 Sn
   0.1250701533978728    0.6234804540880089    0.1248320553734310 Sn
   0.6252730214505645    0.6261298867865893    0.1246037695167704 Sn
   0.1243818865146650    0.1246163942498845    0.6256998477061922 Sn
   0.6252513384069736    0.1245949851368392    0.6253924057294398 Sn
   0.1250742182030390    0.6257405532078523    0.6244632629334435 Sn
   0.6247494941323951    0.6247002235561376    0.6238811063907092 Sn
   0.0002263913231716    0.2501995832540601    0.2500039093648930 Sn
   0.4998206522969305    0.2489179138347178    0.2496784061795741 Sn
  -0.0002620137791161    0.7493866390565007    0.2498766930585278 Sn
   0.5003089069381186    0.7514420360745152    0.2501334690836952 Sn
   0.0001969036849387    0.2499430842442061    0.7485330516417140 Sn
   0.4999797294822061    0.2500460474948173    0.7518832099127607 Sn
  -0.0001470647460385    0.7502305404496662    0.7499734619879763 Sn
   0.4991065165482047    0.7508737164901147    0.7505748715214434 Sn
   0.3756047636147625    0.3743047506533242    0.1260724711706288 Sn
   0.8739282499660572    0.3754486668569106    0.1266746578531924 Sn
   0.3742427103219042    0.8745670512888047    0.1250761859492422 Sn
   0.8746150803293514    0.8738144792061088    0.1250524181009851 Sn
   0.3741878423668094    0.3753620732024107    0.6242970772855965 Sn
   0.8761849634353288    0.3744011833603957    0.6247537759537469 Sn
   0.3756219541636556    0.8740589735900407    0.6251738987821909 Sn
   0.8759993431745019    0.8737710390519150    0.6251411571809596 Sn
   0.0001986868654948    0.0005977230474793   -0.0009456796100209 Sn
   0.4989904780490206    0.0003990373196648    0.0002270521755600 Sn
   0.0001915080196364    0.5002648682803350   -0.0005198958275794 Sn
   0.5001775637329972    0.5002240612013231   -0.0005461394415122 Sn
   0.0014264310587070    0.0003622570632138    0.4990892188211352 Sn
   0.5005019515774641   -0.0007451683997503    0.5006017457725475 Sn
   0.0008857751612025    0.4993725679382819    0.5007365250322386 Sn
   0.5003155812940453    0.5006284854559527    0.5014501454523221 Sn
   0.3748123946768415    0.1244237499395087    0.3743199440757676 Sn
   0.8743762927290857    0.1249410538238513    0.3752608191770821 Sn
   0.3752115370037833    0.6256324021850546    0.3750099402699982 Sn
   0.8761112629849757    0.6247976632628570    0.3770796370413378 Sn
   0.3754783382621746    0.1243446817107993    0.8741812760273836 Sn
   0.8753688621716939    0.1248291571379339    0.8755458711514288 Sn
   0.3753618019443444    0.6249443204833355    0.8743526051232045 Sn
   0.8738418615874636    0.6246586282039974    0.8756547381966928 Sn
