pymatgen with grid density = 0 / number of atoms
0
Gamma
1 1 1
