Li4 Cl4
1.0
   4.9752225844701705    0.0000000000000000    0.0000000000000003
   0.0000000000000008    4.9752225844701705    0.0000000000000003
   0.0000000000000000    0.0000000000000000    4.9752225844701705
Li Cl
4 4
direct
   0.0009983757401361   -0.0002779057596393    0.0013018282641714 Li
   0.0030612295843046    0.4995293610069744    0.4995293940060490 Li
   0.5031741551030035    0.0015425133571881    0.4990563751109339 Li
   0.5010905241612295    0.4990685488238074   -0.0009360983265834 Li
   0.5004863345658571   -0.0038456173812805   -0.0034670164062554 Cl
   0.4988698243753030    0.4979642496327784    0.5006316246705748 Cl
  -0.0018250923654261   -0.0028386744057315    0.5029458958750841 Cl
  -0.0004538014061748    0.5001357290122028   -0.0028636873265946 Cl
