Li32 Cl32
1.0
  10.1684893561990499    0.0000000000000000    0.0000000000000006
   0.0000000000000016   10.1684893561990499    0.0000000000000006
   0.0000000000000000    0.0000000000000000   10.1684893561990499
Li Cl
32 32
direct
  -0.0019895462084828    0.0016392278593345    0.0001268320468208 Li
   0.4986477491259432   -0.0009701850381983    0.0006849432837661 Li
  -0.0004681937617108    0.5023581550967554   -0.0001579786218375 Li
   0.4998152853511649    0.5005509655415388   -0.0023595813347129 Li
  -0.0011612662917342   -0.0005607635103125    0.5012533607291341 Li
   0.5025267615408895   -0.0000906426599127    0.4995272893341124 Li
  -0.0005648908864121    0.4993357015829487    0.4986824388977505 Li
   0.5000969458221025    0.4998306222684407    0.5014464878201131 Li
   0.0031337402719676    0.2506249546367303    0.2492975509770675 Li
   0.4973341462153227    0.2499852760508096    0.2482141112585735 Li
  -0.0014027252407898    0.7476229578030571    0.2500834997271500 Li
   0.4993291721581089    0.7491201885832662    0.2501203700633828 Li
   0.0005429902460560    0.2513250374697276    0.7506063433772773 Li
   0.5001214764949359    0.2520762147006409    0.7499428126462910 Li
  -0.0013825914196916    0.7515242076392108    0.7482604355982175 Li
   0.4994674226325967    0.7502333531453170    0.7486140396638566 Li
   0.2500225472678778   -0.0007907294136875    0.2513012891983602 Li
   0.7505187480113662   -0.0015465477599273    0.2495470895072362 Li
   0.2497613885414031    0.5001134620242585    0.2505479297805799 Li
   0.7510239027282664    0.4993055490936889    0.2475528698820647 Li
   0.2514297344134812   -0.0013451701168223    0.7500307262606637 Li
   0.7504333389421360    0.0005727268645017    0.7509782504581136 Li
   0.2487635385611157    0.5008927992960750    0.7464686226079020 Li
   0.7490794715651872    0.5015609713275130    0.7497498110945817 Li
   0.2493984116347381    0.2517208452972342    0.0015595505495778 Li
   0.7474188948767082    0.2492341966865190    0.0031447141128555 Li
   0.2524483726357480    0.7509926877853672    0.0007182243597374 Li
   0.7525691366728121    0.7521264273603500    0.0021716759352078 Li
   0.2506275653182540    0.2491350635489225    0.4994641894363763 Li
   0.7476734142934108    0.2484367981434336    0.5008628437032316 Li
   0.2486271049848029    0.7510951563010275    0.4992265874088346 Li
   0.7503413193398313    0.7509298279102583    0.5004811292781077 Li
   0.2502204967217199   -0.0017669130992816   -0.0019436479939541 Cl
   0.7497802125129213   -0.0019424039791555    0.0006041761881865 Cl
   0.2478285762153590    0.4997919300072685   -0.0013627007720169 Cl
   0.7477651864748769    0.5000920295714105    0.0008728379534170 Cl
   0.2523162167819692    0.0013331871131867    0.5017003187933985 Cl
   0.7478292506060554   -0.0035004989073977    0.5007429862610783 Cl
   0.2529010727363674    0.4997049914021214    0.4992289492445133 Cl
   0.7483489752100517    0.5011171114335482    0.4992653915412403 Cl
   0.2483520338095332    0.2495970116900702    0.2513278719722487 Cl
   0.7506432407145609    0.2510130312502317    0.2501192007476764 Cl
   0.2474042599801409    0.7502336257342586    0.2491175931359561 Cl
   0.7502111105163511    0.7501664232832216    0.2501398794727691 Cl
   0.2495817903844212    0.2485620239842431    0.7510657249991101 Cl
   0.7488308631908175    0.2486539252174872    0.7508876626931106 Cl
   0.2493642297729394    0.7522632679696702    0.7504646968808311 Cl
   0.7485378518803601    0.7515257451265340    0.7480286986085887 Cl
  -0.0017196381308345   -0.0006238538307273    0.2518015911587942 Cl
   0.4961851855382824    0.0010228222509391    0.2495214800348397 Cl
  -0.0021378777257196    0.5008018103065943    0.2502596202765027 Cl
   0.5006712765481933    0.4999980320187086    0.2504868685256847 Cl
   0.0024039186271112    0.0012719521828874    0.7496831260853674 Cl
   0.4992736198334550    0.0000028305388503    0.7498360714308840 Cl
   0.0004361874955068    0.5000491962576566    0.7487485004172318 Cl
   0.4984557487548552    0.4996940492341975    0.7497034653105951 Cl
  -0.0015544455931865    0.2493412587735814   -0.0028047334692645 Cl
   0.4990956387063297    0.2521788634196377    0.0009275005738531 Cl
  -0.0027239700953495    0.7499118337361035    0.0002429251728387 Cl
   0.5009038394978327    0.7487441447654254    0.0001826311163220 Cl
  -0.0012838700298693    0.2511511635581246    0.5005957127561685 Cl
   0.5009005117861545    0.2502959033951535    0.4988592550480487 Cl
   0.0002697525231307    0.7493046435946510    0.5000041585048409 Cl
   0.4998701793327051    0.7481649935276664    0.5014411750538190 Cl
