Sn8
1.0
   6.5699739939384152    0.0000000000000000    0.0000000000000004
  -0.0000000000000004    6.5699739939384152    0.0000000000000004
   0.0000000000000000    0.0000000000000000    6.5699739939384152
Sn
8
direct
   0.5000000000000000    0.5000000000000000    0.0000000000000000 Sn0+
   0.2500000000000000    0.7500000000000000    0.7500000000000000 Sn0+
   0.5000000000000000    0.0000000000000000    0.5000000000000000 Sn0+
   0.2500000000000000    0.2500000000000000    0.2500000000000000 Sn0+
   0.0000000000000000    0.5000000000000000    0.5000000000000000 Sn0+
   0.7500000000000000    0.7500000000000000    0.2500000000000000 Sn0+
   0.0000000000000000    0.0000000000000000    0.0000000000000000 Sn0+
   0.7500000000000000    0.2500000000000000    0.7500000000000000 Sn0+
