ALGO = Fast
EDIFF = 1e-07
ENAUG = 1360
ENCUT = 700
GGA = Ps
IBRION = 2
ISIF = 3
ISMEAR = 0
ISPIN = 1
KSPACING = 0.2
LAECHG = False
LASPH = True
LCHARG = False
LELF = False
LMIXTAU = True
LORBIT = 11
LREAL = False
LVTOT = True
LWAVE = False
NELM = 200
NSW = 0
PREC = Accurate
SIGMA = 0.05
