Li32 Cl32
1.0
  10.1220382892769774    0.0000000000000000    0.0000000000000006
   0.0000000000000016   10.1220382892769774    0.0000000000000006
   0.0000000000000000    0.0000000000000000   10.1220382892769774
Li Cl
32 32
direct
   0.0000260567803596    0.0002571830830737   -0.0003903813937716 Li
   0.4997981622878716   -0.0012563009725685   -0.0025655688667055 Li
   0.0002861883185696    0.4991372245205420    0.0003893214442577 Li
   0.5009238312651666    0.4999845043981184    0.0002564660978692 Li
  -0.0014555509463455    0.0007922580147971    0.4982703558941025 Li
   0.4995109167568068   -0.0009964404208899    0.5000249398245222 Li
  -0.0001200418840640    0.4984717769902542    0.4994003737624833 Li
   0.4986229920965300    0.4993798724361411    0.5003286217112103 Li
  -0.0015227830579138    0.2516501615313400    0.2495064770048927 Li
   0.5006650132565483    0.2522209850515616    0.2483656821839907 Li
  -0.0004686773578755    0.7497017248579065    0.2490801987203764 Li
   0.5010975912439198    0.7498126039903966    0.2512629962014150 Li
  -0.0005473967822700    0.2503500310212894    0.7495650321014883 Li
   0.4995806686211235    0.2502253317151477    0.7505720628102847 Li
  -0.0008438896680578    0.7491688034469856    0.7493522015097571 Li
   0.4998548882178151    0.7486050482515494    0.7497327051955118 Li
   0.2511156876433603   -0.0013240989939704    0.2497537096569546 Li
   0.7517422303316253   -0.0005848223548673    0.2491031335238287 Li
   0.2502685226133504    0.4999954933280825    0.2508438092327545 Li
   0.7484291653138558    0.5000553732215876    0.2501045862142491 Li
   0.2499102576229704   -0.0007052690729124    0.7502012592603186 Li
   0.7511885272541364    0.0000832965318978    0.7501619574226622 Li
   0.2503692453429752    0.4997758288955292    0.7493368189435732 Li
   0.7503103227536271    0.5014665209423943    0.7506443012161734 Li
   0.2497702306976753    0.2511704620677188    0.0009098437347297 Li
   0.7512018338144058    0.2481394431127549    0.0002186239283159 Li
   0.2517946931266991    0.7517218705613105   -0.0000597486254257 Li
   0.7494175601482022    0.7491878813642463   -0.0000515885789099 Li
   0.2499157902132400    0.2504258557575692    0.4998056917452270 Li
   0.7493473731342862    0.2497564752893909    0.4997929835891053 Li
   0.2494998922201581    0.7485787238156669    0.4997984487016485 Li
   0.7494394069939273    0.7496554261839344    0.4989822324284977 Li
   0.2505787828894569    0.0003673467042116   -0.0023781232583074 Cl
   0.7509523607046261    0.0000953405740817    0.0004235965273043 Cl
   0.2505901317811822    0.5007212839458078   -0.0011770957410943 Cl
   0.7514963167180728    0.4993107669457436   -0.0003223060024619 Cl
   0.2507737224595878   -0.0016667835938432    0.5013993335828338 Cl
   0.7493784308125192   -0.0005099727483252    0.5024170954489610 Cl
   0.2484368754572925    0.4982161341092776    0.5003734418793485 Cl
   0.7489887548821044    0.4990535735471996    0.4998013535960776 Cl
   0.2503002587411716    0.2497643091305682    0.2505529307526700 Cl
   0.7486377495805022    0.2513532957900220    0.2482094100523263 Cl
   0.2501300896112083    0.7517389824995910    0.2494772928557552 Cl
   0.7509663361531234    0.7489517697935124    0.2486487958420876 Cl
   0.2481796022107715    0.2494882819714494    0.7516077906184444 Cl
   0.7503186200370594    0.2506901136797577    0.7529575406556209 Cl
   0.2502256811534024    0.7497242194642317    0.7502293932897326 Cl
   0.7509703175751670    0.7500229543079491    0.7503221976907563 Cl
  -0.0002750705706278   -0.0000865186199157    0.2514534311651580 Cl
   0.4995339140835692    0.0003061088803446    0.2498416946174340 Cl
   0.0001984425959421    0.4991180946780739    0.2501935210510551 Cl
   0.4999745792621504    0.5009156963568434    0.2497106884419540 Cl
   0.0010253137241472    0.0014043697574612    0.7503901903114393 Cl
   0.5001382482673874    0.0002624278847634    0.7508430855082034 Cl
  -0.0001003269025233    0.5012001819533652    0.7510818819809653 Cl
   0.5001300534565021    0.4996033991384645    0.7512925848722680 Cl
  -0.0009201083639487    0.2494250925333788   -0.0011251964411129 Cl
   0.4994822148401594    0.2511101358625143    0.0005281270096161 Cl
   0.0001978494332062    0.7504743059827848    0.0012869905987166 Cl
   0.4995830033458392    0.7504708865223884    0.0005069696132866 Cl
  -0.0001805752947955    0.2492127703896852    0.4985857992917884 Cl
   0.4986448004089133    0.2495034977596927    0.5006866114509524 Cl
   0.0004406729637405    0.7516585885102677    0.4996851674281774 Cl
   0.5008686430703539    0.7490730306175404    0.5008863680463823 Cl
