Li32 Cl32
1.0
  10.2880028407615729    0.0000000000000000    0.0000000000000006
   0.0000000000000016   10.2880028407615729    0.0000000000000006
   0.0000000000000000    0.0000000000000000   10.2880028407615729
Li Cl
32 32
direct
   0.0004828091133910   -0.0001343937237492    0.0006295571143648 Li
   0.5014803940861813   -0.0002275984740164   -0.0002275825158422 Li
   0.0015350042568519    0.5007459511248503   -0.0004563318976496 Li
   0.5005273715919248    0.4995495552441175   -0.0004526920927014 Li
   0.0002351887682295   -0.0018597197865044    0.4983233695993173 Li
   0.4994534531745917   -0.0009844778777875    0.5003054502778228 Li
  -0.0008826048063708    0.4986272323956408    0.5014246193275865 Li
   0.4997805440920058    0.5000656378169146    0.4986151362822641 Li
  -0.0005291432486472    0.2501078174174587    0.2488812273915185 Li
   0.5003651807101540    0.2494161756181296    0.2497164719389096 Li
  -0.0005848624087130    0.7518004254209280    0.2499868806172132 Li
   0.4989718986810878    0.7507995185507181    0.2488133327052224 Li
   0.0002030166575939    0.2480951889747586    0.7487089952545150 Li
   0.5001913502930706    0.2507177939114378    0.7501665709893770 Li
  -0.0001124108188715    0.7497073254155835    0.7485628678245406 Li
   0.4993003071446066    0.7495522563726995    0.7510275290963473 Li
   0.2503339990228298   -0.0017136855254136    0.2503150115473440 Li
   0.7496256977312536   -0.0006579722136389    0.2505945529937233 Li
   0.2510021376728349    0.5009052098191754    0.2491842755720307 Li
   0.7496994437301024    0.5003219900271518    0.2509482356704424 Li
   0.2495342397885557   -0.0001804616304422    0.7489246358198669 Li
   0.7488372800410381    0.0007897799358831    0.7513182733807161 Li
   0.2499300057331875    0.5009754399502262    0.7503515123689651 Li
   0.7493729397584832    0.5003512786797419    0.7514949806976841 Li
   0.2499651768767326    0.2515208429469079   -0.0025464078350661 Li
   0.7507988941265826    0.2500846102684705   -0.0002906369244779 Li
   0.2500891920209936    0.7480680711841113   -0.0002135223825631 Li
   0.7503471155452024    0.7514365218085727   -0.0005037617371374 Li
   0.2492141394054734    0.2495122891669542    0.5008897763072878 Li
   0.7503195480354621    0.2494850699285695    0.5004988990001827 Li
   0.2500943599558151    0.7509415286966046    0.4993176002138182 Li
   0.7496815104431155    0.7496188685411528    0.4985774547589221 Li
   0.2502878306719467    0.0002537472784762    0.0000049703102940 Cl
   0.7497719799099919   -0.0013757487861907   -0.0004088697575964 Cl
   0.2496668794499463    0.4992201817188046   -0.0001567706717838 Cl
   0.7503927398379143    0.5018333839233960    0.0001696906732375 Cl
   0.2502503405128373   -0.0000723618732600    0.4981349429573476 Cl
   0.7499742283552407    0.0000585441225797    0.5023942859956511 Cl
   0.2498130239972145    0.5002931058116925    0.4999662599532266 Cl
   0.7488640379909408    0.5011108305782995    0.5007308833836122 Cl
   0.2507688877611006    0.2491160699808599    0.2513635244202870 Cl
   0.7486373924225230    0.2505704285884089    0.2521291359068558 Cl
   0.2490371927958591    0.7494495552359692    0.2500968617200345 Cl
   0.7495106186672872    0.7484927459147633    0.2500666436196288 Cl
   0.2489674344669529    0.2504603346616107    0.7491063141715015 Cl
   0.7515065454675773    0.2492386731375764    0.7496869542891941 Cl
   0.2507907435777005    0.7488035925577727    0.7502210924103778 Cl
   0.7512705505378587    0.7484375167275493    0.7501794652095162 Cl
   0.0002526076229477    0.0007599364851258    0.2487976765461444 Cl
   0.4987165083121356    0.0005073303086085    0.2502886708701678 Cl
   0.0002434805415813    0.5003367497218452    0.2493390119228154 Cl
   0.5002257519761180    0.5002848681885443    0.2493056461695402 Cl
   0.0018135439307544    0.0004605684195911    0.7488420459095492 Cl
   0.5006381740156919   -0.0009473963852008    0.7507650509199159 Cl
   0.0011261617992726    0.4992022919014951    0.7509364073320695 Cl
   0.5004012255180383    0.5007990473687832    0.7518436940696969 Cl
  -0.0002385187094143    0.2492673639616708   -0.0008646133203825 Cl
   0.4992070275469469    0.2499250566795057    0.0003316017502104 Cl
   0.0002689451039358    0.7508040270418262    0.0000126379162984 Cl
   0.5014128437750798    0.7497427519827370    0.0026440206215848 Cl
   0.0006081523862786    0.2491668377529794    0.4989590861174549 Cl
   0.5004689660595072    0.2497827928425131    0.5006940127303070 Cl
   0.0004599897880068    0.7499292098633872    0.4991769114655439 Cl
   0.4985275594805593    0.7495659848087345    0.5008324247257497 Cl
