Li32 Cl32
1.0
  10.2880028407615729    0.0000000000000000    0.0000000000000006
   0.0000000000000016   10.2880028407615729    0.0000000000000006
   0.0000000000000000    0.0000000000000000   10.2880028407615729
Li Cl
32 32
direct
   0.0002001018759783    0.0011340993264070   -0.0020146182020503 Li
   0.4993850243017336    0.0009692128439811    0.0023275205422857 Li
  -0.0005260823515041    0.5007316341491674   -0.0020901547436831 Li
   0.4997031099806956    0.4996093547062068   -0.0005948993704281 Li
  -0.0001199540884637   -0.0005133361698010    0.5008856437340430 Li
   0.4979958319006870    0.0016855481998801    0.4989733861215643 Li
   0.0017554662811373    0.5017879325189954    0.5023309473721840 Li
   0.5005277044302795    0.4997787346352412    0.4997352202091774 Li
   0.0010681089234253    0.2498264858805225    0.2497825231843013 Li
   0.5003184964479811    0.2480138536761936    0.2477250605896349 Li
   0.0004273710132263    0.7499324706007169    0.2505291139029501 Li
   0.5008414983379998    0.7492060883909156    0.2495571725526320 Li
   0.0007989965436963    0.2490374679526584    0.7506174086491771 Li
   0.4996088489900193    0.2492871369172380    0.7493176501462102 Li
  -0.0000040965238205    0.7495304548111000    0.7491555204000504 Li
   0.5012617466342182    0.7507133903779513    0.7494486525497330 Li
   0.2504340363320524    0.0007772086675278    0.2498557796183031 Li
   0.7494002617550135   -0.0011943211955724    0.2501211620160739 Li
   0.2493942966842412    0.5003786173105809    0.2496056966989553 Li
   0.7498798500844124    0.5013402760781517    0.2507866489674626 Li
   0.2508584658425028    0.0004895238027496    0.7503929811342970 Li
   0.7517515633066765    0.0007799972753027    0.7502645072603656 Li
   0.2503230895890874    0.5008798268435742    0.7501661751328871 Li
   0.7496053235263122    0.5017901580254848    0.7498104217455528 Li
   0.2506592719689721    0.2490550453260862    0.0002949409485713 Li
   0.7506537653721697    0.2501768677033243   -0.0013341016185288 Li
   0.2502032469945401    0.7509844146839907    0.0006272988114221 Li
   0.7481392384358769    0.7505086105889415   -0.0009620258491384 Li
   0.2499427801257899    0.2510710076666161    0.5004591410877407 Li
   0.7498566205374106    0.2490579594923807    0.5010423128406144 Li
   0.2506014513963563    0.7485021311497940    0.5004884903951310 Li
   0.7484562227948099    0.7478586417726755    0.5006284849812982 Li
   0.2504064562640563   -0.0002360470369501   -0.0010711508242464 Cl
   0.7494505857156974    0.0000219894044219    0.0002407138715117 Cl
   0.2517639315113623    0.5013744655624955   -0.0003982416972222 Cl
   0.7501420221481723    0.5005414582319555    0.0015149582809232 Cl
   0.2492381232943690    0.0001651096381735    0.5012387957123157 Cl
   0.7502455858054096   -0.0020256498427322    0.4993343409883443 Cl
   0.2520839610832096    0.4987800722279345    0.5006042908194169 Cl
   0.7502039538566332    0.5004380704994570    0.5014119643873527 Cl
   0.2514957454171253    0.2509985708265038    0.2521586260418971 Cl
   0.7502537314449848    0.2506669275212815    0.2504211604032152 Cl
   0.2483249276511615    0.7518950928220178    0.2476306599065776 Cl
   0.7498350841773519    0.7490365933444539    0.2511811027057215 Cl
   0.2501424773818962    0.2506756151513382    0.7497675558770515 Cl
   0.7481482816009917    0.2508025243812840    0.7487317273347924 Cl
   0.2484312314307932    0.7498960465355703    0.7517276533286045 Cl
   0.7498891058975268    0.7497231635645258    0.7495620635405894 Cl
   0.0003884983454975   -0.0013094224839680    0.2502538284516986 Cl
   0.4991491463796305   -0.0006646660586658    0.2502727674981139 Cl
   0.0009135898245110    0.5003824119509244    0.2491544201616568 Cl
   0.5000533954417139    0.4988085025272674    0.2491880225492003 Cl
   0.0009369387649939   -0.0001562394527867    0.7485767308404916 Cl
   0.5010708331286060    0.0004811821379294    0.7499243512126742 Cl
  -0.0004932664489570    0.5002456640891876    0.7503260598340195 Cl
   0.4998864636489598    0.5004778247693094    0.7503049520508882 Cl
   0.0014919940816485    0.2491748890351171    0.0015505325985842 Cl
   0.4980791494188407    0.2514655534570212   -0.0007325051759898 Cl
   0.0002165793619688    0.7501851773822507    0.0017214677194796 Cl
   0.5005475028712608    0.7499357686409025   -0.0000115569389087 Cl
   0.0004721746245862    0.2501919076278440    0.5005165541812161 Cl
   0.5003184406217096    0.2492770448414552    0.4983313436538633 Cl
   0.0005321802359130    0.7492374670720459    0.5001698815578808 Cl
   0.4996367663466053    0.7509249675342533    0.4986719204895637 Cl
