Li32 Cl32
1.0
  10.4227015901040261    0.0000000000000000    0.0000000000000006
   0.0000000000000016   10.4227015901040261    0.0000000000000006
   0.0000000000000000    0.0000000000000000   10.4227015901040261
Li Cl
32 32
direct
   0.0002564913505256   -0.0010370241363174    0.0013659923233109 Li
   0.5001527419178858    0.0014232249820035   -0.0000081689000768 Li
   0.0002355977499380    0.5002753559109523   -0.0002983777954283 Li
   0.4996059416640524    0.4977465236989543   -0.0010000769093410 Li
   0.0011883346206295   -0.0016088389436278    0.4990980142818470 Li
   0.5013973916242399   -0.0012992062197021    0.4990253924358566 Li
  -0.0019205974481563    0.4970515612905562    0.5026094695893503 Li
   0.4990818270176797    0.4973027685094543    0.5001263154704680 Li
  -0.0002891015491757    0.2501005778301260    0.2501775560100092 Li
   0.5011937499390784    0.2484975212053981    0.2501440965094188 Li
  -0.0010506839735278    0.7484558699731891    0.2492411848796006 Li
   0.5000958070567837    0.7518371092851042    0.2499673998291315 Li
   0.0020445681398369    0.2493165748263982    0.7505870788571964 Li
   0.5015756734825303    0.2500677701020610    0.7512666008335326 Li
   0.0012169294314583    0.7521961051368091    0.7502747250897971 Li
   0.5003346445735223    0.7509502021158925    0.7501886485478015 Li
   0.2506226809013175   -0.0010811128474659    0.2519504610436146 Li
   0.7497536588226089    0.0016963154525214    0.2512861374758931 Li
   0.2495001783927994    0.4990410625208248    0.2508718749141597 Li
   0.7503439736859182    0.4994709091138878    0.2499784229647711 Li
   0.2490972762914253   -0.0008835419161684    0.7522311710897064 Li
   0.7508890195103569   -0.0012008616215317    0.7509621587408254 Li
   0.2496507866877092    0.4993225934141916    0.7495503560549156 Li
   0.7515250405333218    0.4988242665996382    0.7506139559508844 Li
   0.2501299579262201    0.2478350989817530   -0.0015888859904118 Li
   0.7520766266360405    0.2493187277481520   -0.0002238945327593 Li
   0.2516100217583770    0.7491099661446309   -0.0009523499431791 Li
   0.7507206072773199    0.7484573066052778    0.0000773813383202 Li
   0.2509395753886484    0.2482540983942077    0.5007525628937445 Li
   0.7500261213811924    0.2492343491458188    0.4996784766917720 Li
   0.2507563084228548    0.7481127503193562    0.4990842222636753 Li
   0.7497241102503143    0.7502619035541512    0.4989540798499667 Li
   0.2496776294484269   -0.0040673656935462    0.0015139566416921 Cl
   0.7501358662724438    0.0003922378963996    0.0005498435062872 Cl
   0.2487920507637547    0.5020412626177532   -0.0026339015884544 Cl
   0.7498053133528741    0.5004229019352153   -0.0002712459504414 Cl
   0.2505832174001917    0.0011735081469959    0.5006983343546079 Cl
   0.7515765192589443    0.0008767360471778    0.5015997911010824 Cl
   0.2523838009666805    0.5000340343431193    0.5004301736705135 Cl
   0.7506944853836698    0.5019969209926125    0.4999394662762223 Cl
   0.2505215287020969    0.2498164305144454    0.2486245346769764 Cl
   0.7510901232262370    0.2507936656554571    0.2526002375577605 Cl
   0.2514565494165880    0.7499687018667293    0.2506108159108149 Cl
   0.7496563155025017    0.7499290527398093    0.2529518514722735 Cl
   0.2500818584584255    0.2513765647656887    0.7491101347588000 Cl
   0.7490336930183270    0.2511915562168953    0.7516995934201516 Cl
   0.2490175354382433    0.7524280774964646    0.7453412931995482 Cl
   0.7508440321057835    0.7521638653647007    0.7480574129544523 Cl
   0.0006004267735570   -0.0023862186301543    0.2506597980035453 Cl
   0.4997427354692878   -0.0010940977838234    0.2510663086765607 Cl
   0.0010206509953562    0.4979050723433041    0.2500865666646356 Cl
   0.4985485476866313    0.4977733969777455    0.2502700560575691 Cl
   0.0015321618352134    0.0004303428490536    0.7503282597652124 Cl
   0.4987780017808405   -0.0002439686017471    0.7490301600007607 Cl
  -0.0033680005943951    0.4994913333595267    0.7503387961689330 Cl
   0.5002266876319504    0.4988730638178076    0.7488690916866096 Cl
   0.0005657899585945    0.2486855693704969    0.0012373280149393 Cl
   0.4987724397726422    0.2469947296798660    0.0004675820189878 Cl
  -0.0026385303306073    0.7516522895624327   -0.0008664702651976 Cl
   0.4981969553752650    0.7495711380830632   -0.0025331358163071 Cl
   0.0005096312329094    0.2496110724824684    0.4969849983493315 Cl
   0.4994942933270977    0.2508338877147543    0.4980819215811905 Cl
   0.0001381358814838    0.7503189207746258    0.4977344671293107 Cl
   0.5004863961011842    0.7486802320142871    0.4994027880882767 Cl
