Li4 Cl4
1.0
   5.0610191446384887    0.0000000000000000    0.0000000000000003
   0.0000000000000008    5.0610191446384887    0.0000000000000003
   0.0000000000000000    0.0000000000000000    5.0610191446384887
Li Cl
4 4
direct
   0.0009814508477753   -0.0002731945823948    0.0012797591148945 Li
   0.0030093343116899    0.4995373394803861    0.4995373719200463 Li
   0.5031203454687191    0.0015163640113196    0.4990723718434608 Li
   0.5010720371294399    0.4990843391823493   -0.0009202291875612 Li
   0.5004780900143844   -0.0037804248313992   -0.0034082420619577 Cl
   0.4988889835956525    0.4979987605433039    0.5006209170991343 Cl
  -0.0017941526194050   -0.0027905519836483    0.5028959557888142 Cl
  -0.0004461083707334    0.5001334280759626   -0.0028151408747837 Cl
