Li32 Cl32
1.0
  10.1684893561990499    0.0000000000000000    0.0000000000000006
   0.0000000000000016   10.1684893561990499    0.0000000000000006
   0.0000000000000000    0.0000000000000000   10.1684893561990499
Li Cl
32 32
direct
   0.0012634547540308    0.0012209781311187    0.0007781906224544 Li
   0.4992874474052982   -0.0001673035176138    0.0007071487730873 Li
   0.0003508458345083    0.5028819987060917   -0.0003791590240754 Li
   0.4997372430233548    0.5000096238125492    0.0002250562148636 Li
   0.0011154052795135   -0.0015614349248030    0.4994413078659600 Li
   0.5018455553935137    0.0006860947948412    0.5002056751407604 Li
   0.0003766356486460    0.4996126363841485    0.5007891341846806 Li
   0.4997483952723610    0.5000012431039373    0.5007699723481438 Li
  -0.0011277795435831    0.2494302487477833    0.2491784269947981 Li
   0.5006602858386582    0.2508538099386852    0.2516832999370764 Li
  -0.0004028111447692    0.7491204242206913    0.2495860965832039 Li
   0.5000618536549198    0.7506361764189033    0.2515796217693559 Li
   0.0004384721787710    0.2495960761870952    0.7507607346435057 Li
   0.5000758402003082    0.2491589469709884    0.7507444836085393 Li
  -0.0001521886933790    0.7491356586514695    0.7504015748450954 Li
   0.5010210074120427    0.7498182628842258    0.7506334634089012 Li
   0.2498571402544724   -0.0009095033015099    0.2484394673699110 Li
   0.7487087411676890   -0.0009301865476302    0.2508543684791350 Li
   0.2492357869868174    0.4983440113120600    0.2498036860408412 Li
   0.7499653640539427    0.4998816334757518    0.2497682348004784 Li
   0.2515358782032686    0.0016952141826393    0.7497299035630935 Li
   0.7484930207530625    0.0005137488714800    0.7494658118329651 Li
   0.2504611183196824    0.5011815334100602    0.7495299235265726 Li
   0.7482454598605084    0.5002304305529059    0.7494082306207605 Li
   0.2490803335337017    0.2491705012461475    0.0008281197576287 Li
   0.7513499275267546    0.2489016255755302    0.0015913040457013 Li
   0.2484513853056258    0.7523072500025076   -0.0000347253812294 Li
   0.7505555360898203    0.7503389726653323   -0.0001030735112452 Li
   0.2491065131901483    0.2491390198375033    0.4973019374555701 Li
   0.7515951518940075    0.2495586248136622    0.4994552786336009 Li
   0.2498610043115485    0.7499916646579471    0.5009517566234025 Li
   0.7504351459352513    0.7488882581552696    0.5004757983597777 Li
   0.2513967213034101    0.0001264190447582    0.0011412095066928 Cl
   0.7490013414627574    0.0001640839149720   -0.0002051113938044 Cl
   0.2509990566492440    0.4991049228090120   -0.0004273864914353 Cl
   0.7495742916642989    0.5003403649496930   -0.0003878261773601 Cl
   0.2493968246680667   -0.0003496255327908    0.5005862325418025 Cl
   0.7504684536525567    0.0012484948688970    0.5005087898125661 Cl
   0.2489507227009147    0.5013599359351568    0.4990098281907218 Cl
   0.7502015184975509    0.4986053964095429    0.4994207342144789 Cl
   0.2495507390113808    0.2487183344169878    0.2492378996496478 Cl
   0.7505357914323166    0.2499661588345087    0.2492746885604203 Cl
   0.2498711675491754    0.7502028036563250    0.2509259361844476 Cl
   0.7495879054009665    0.7510312181707486    0.2510763863657751 Cl
   0.2489433598171196    0.2512021482080120    0.7505604547837577 Cl
   0.7492434341052238    0.2497473511353516    0.7514526179964665 Cl
   0.2506780673611620    0.7508628732018969    0.7503338577652554 Cl
   0.7502914063824565    0.7491545083279191    0.7507074317999083 Cl
  -0.0020644611613130   -0.0006605623278109    0.2485211777456301 Cl
   0.5000080234619696   -0.0017129504431193    0.2511166494559959 Cl
   0.0004145828663553    0.4988581785385534    0.2497630995719892 Cl
   0.5007838152829927    0.5006987268923661    0.2498665205070520 Cl
   0.0000299156735559   -0.0002047951678430    0.7517146763219216 Cl
   0.5008718657868528   -0.0008928948600225    0.7491697385138815 Cl
  -0.0008292409574901    0.4982629170406878    0.7502248856720252 Cl
   0.5006933238281127    0.4999129682356563    0.7513776697376793 Cl
  -0.0007840629952976    0.2506750165513228   -0.0008293711070643 Cl
   0.4997332030223081    0.2512958900214343   -0.0002554364338151 Cl
   0.0003420624654424    0.7484787225917162   -0.0013664275009631 Cl
   0.4991064562428931    0.7505836173353395   -0.0020020876956099 Cl
   0.0011052839078342    0.2495578330416099    0.5009065046723470 Cl
   0.5002901862149242    0.2503481525998557    0.5004589626045771 Cl
  -0.0013569792859273    0.7516715667543995    0.5016543027345722 Cl
   0.4998435445826542    0.7495479135178780    0.4998584751029859 Cl