Li32 Cl32
1.0
   9.9142771222940738    0.0000000000000000    0.0000000000000006
   0.0000000000000016    9.9142771222940738    0.0000000000000006
   0.0000000000000000    0.0000000000000000    9.9142771222940738
Li Cl
32 32
direct
   0.0014607578832052   -0.0017734478701172   -0.0008654926754670 Li
   0.5006235703813779    0.0004958913661313   -0.0005155926785587 Li
   0.0005377608790633    0.5023054373247986   -0.0010339795845307 Li
   0.5005509949248501    0.4998601770986624    0.0002559107469939 Li
  -0.0000415996427156   -0.0014004872571664    0.4999444768517425 Li
   0.4991265607924403   -0.0011072617346150    0.5001056901954236 Li
  -0.0014443151313659    0.4996540855168854    0.5009739258415771 Li
   0.4985988521650704    0.5013084650283588    0.4995766754852182 Li
   0.0005867725031961    0.2511737174029534    0.2498605839816719 Li
   0.4994072295541996    0.2508944881890652    0.2496694372657262 Li
   0.0017025425704116    0.7486445538839018    0.2501778778023534 Li
   0.4986885024116560    0.7493217197683341    0.2509573344370521 Li
  -0.0004684400272502    0.2504993496802607    0.7518581203965152 Li
   0.4995352087531627    0.2507062749258387    0.7505021801350581 Li
  -0.0004436711302346    0.7496381700525478    0.7491678073710633 Li
   0.5002708448287647    0.7495558432620952    0.7487119489703101 Li
   0.2513394414314642   -0.0011680532362396    0.2475770751459393 Li
   0.7497717172817878    0.0012207832455027    0.2498121360637347 Li
   0.2503779271129251    0.4986675227028540    0.2498134959734779 Li
   0.7497981428245332    0.4997052666661848    0.2502422659778910 Li
   0.2509096353958820   -0.0008476148909413    0.7490801380981436 Li
   0.7509059116293555   -0.0002787724994453    0.7484574952851808 Li
   0.2511688281775479    0.5010474286070057    0.7497087752035765 Li
   0.7492299484652422    0.5007737045093688    0.7514404720161267 Li
   0.2512605097864448    0.2495529355098944   -0.0015260714112006 Li
   0.7500888835078195    0.2502913116482360   -0.0013668529123498 Li
   0.2488278926499242    0.7495954293276097    0.0015865322210150 Li
   0.7486973514940379    0.7496448184347669    0.0009005752374185 Li
   0.2495942118660672    0.2496987819096424    0.5007210741501200 Li
   0.7483691354913160    0.2518178839515612    0.4998424303603770 Li
   0.2503412561178414    0.7490583024478649    0.4986493093466410 Li
   0.7499301480155564    0.7486482007152770    0.4999496834824080 Li
   0.2493511417091108   -0.0006770795633191    0.0000688306277796 Cl
   0.7507920694447879   -0.0012946175918622   -0.0003728121049060 Cl
   0.2505394259775414    0.5009584981706641    0.0000519794967164 Cl
   0.7500462889957059    0.4992178401064776    0.0001608388196992 Cl
   0.2500259446532255    0.0008952069118618    0.5009310889336857 Cl
   0.7504924158176745   -0.0007482802245305    0.4996574997841970 Cl
   0.2531132765905402    0.4991594155203232    0.4979990637466246 Cl
   0.7488642740728830    0.4987756534851449    0.5002717415174990 Cl
   0.2501940261398818    0.2508104682626037    0.2488508671997584 Cl
   0.7508939125573639    0.2498361484604738    0.2512356927895676 Cl
   0.2493580671918985    0.7493716410686109    0.2498697501175345 Cl
   0.7484483776644344    0.7503176000925579    0.2506116438953864 Cl
   0.2502948237614195    0.2510076695750639    0.7507589639751318 Cl
   0.7503679184313488    0.2503064942956334    0.7506397338526858 Cl
   0.2501445612580121    0.7489763745844479    0.7519232940525381 Cl
   0.7500125131174079    0.7502890557034469    0.7510477914841377 Cl
   0.0001009365440699   -0.0013322762770483    0.2506890710329608 Cl
   0.5003827302735478   -0.0008629486431668    0.2506132720860844 Cl
   0.0002079688115530    0.4984417970278219    0.2502238112612059 Cl
   0.4995430976750521    0.4998714267761690    0.2487237088769730 Cl
  -0.0004399256084096    0.0012419769514998    0.7524479176603470 Cl
   0.4980410634361265    0.0019169066325121    0.7505114409169591 Cl
   0.0011608618686593    0.4998550316187066    0.7491599633166747 Cl
   0.5005856477173700    0.4998051510268035    0.7495361416221603 Cl
  -0.0001034936158973    0.2494007309627089    0.0004587711577123 Cl
   0.4981097641100854    0.2497747222453112    0.0009716002655814 Cl
   0.0000718369990908    0.7508131079814739    0.0010867678537983 Cl
   0.5000978398529539    0.7500701891649088    0.0017088400354662 Cl
  -0.0010456105903358    0.2495175344727148    0.5001076163086591 Cl
   0.5002926872459683    0.2489591321918662    0.4993761119689015 Cl
   0.0013589501477686    0.7508028251270824    0.5010613768090989 Cl
   0.5005650274590010    0.7503594347536724    0.5002603948439079 Cl
