Li4 Cl4
1.0
   5.0842446780995250    0.0000000000000000    0.0000000000000003
   0.0000000000000008    5.0842446780995250    0.0000000000000003
   0.0000000000000000    0.0000000000000000    5.0842446780995250
Li Cl
4 4
direct
  -0.0004207072611457    0.0002187269314338    0.0000070416659459 Li
  -0.0001239432367447    0.5000000069636925    0.4997622149411970 Li
   0.5000573591739286   -0.0003246608398505    0.4997035687330559 Li
   0.5000521772358847    0.4999800554772305   -0.0001702103161315 Li
   0.5001413537135012    0.0002121955363946   -0.0000278912152367 Cl
   0.5002188400142972    0.4999886721433133    0.5000015899770369 Cl
   0.0000414426783149    0.0001992991408332    0.5001377874630818 Cl
   0.0000642005155045    0.5001067308894457   -0.0001081345089068 Cl
