Si10
1.0
   3.3074464799999999   -0.0000000000000000    0.0000000000000000
  -0.0000000100000000    6.9105423300000002    0.0000000000000000
   0.0000000100000000    0.0000000000000000    6.9105423300000002
Si
10
direct
   0.4211005302632679    0.3076493896536192    0.6531115004399370 Si
   0.4211005293287833    0.6923506103463807    0.3468884995600627 Si
   0.5788994688108728    0.3468884995600627    0.3076493896536192 Si
   0.5788994685735954    0.6531115004399370    0.6923506103463807 Si
   0.0788994685735954    0.8076493903771512    0.8468885002835949 Si
   0.0788994688108728    0.1923506096228485    0.1531114997164050 Si
   0.9211005302632680    0.8468885002835949    0.1923506096228485 Si
   0.9211005293287832    0.1531114997164050    0.8076493903771512 Si
   0.5000000000000002    0.0000000000000000    0.9999999999999998 Si
  -0.0000000000000000    0.5000000007235321    0.5000000007235321 Si
