Li32 Cl32
1.0
  10.2056952920104589    0.0000000000000000    0.0000000000000006
   0.0000000000000016   10.2056952920104589    0.0000000000000006
   0.0000000000000000    0.0000000000000000   10.2056952920104589
Li Cl
32 32
direct
  -0.0010221342577445   -0.0008043113847009    0.0006517398721810 Li
   0.5017858919072532   -0.0014125283667744    0.0002290956451470 Li
   0.0003327743228023    0.5002265536117939   -0.0000097257681525 Li
   0.5017674913207203    0.5013402751572491   -0.0002560944229267 Li
  -0.0004385843740966    0.0005583571580072    0.4990113167254671 Li
   0.4988938013812043    0.0010381895392106    0.5010096725816279 Li
   0.0001394969125824    0.5005809297369400    0.4990097320984712 Li
   0.4981898689027029    0.4997746316827336    0.5003692980061878 Li
  -0.0004605432169831    0.2497859107266906    0.2503389480774110 Li
   0.4997948766281928    0.2503986815567928    0.2509986137921626 Li
  -0.0010246150116418    0.7515880820232174    0.2482076032308919 Li
   0.5012102648656372    0.7478105461795608    0.2496895339309090 Li
   0.0012696929908364    0.2501691309960038    0.7498761892407415 Li
   0.5000170247731833    0.2512751539273576    0.7506067865989093 Li
  -0.0002201668949805    0.7496310377961987    0.7510974256728650 Li
   0.5003882317904631    0.7506268350218367    0.7484801170044965 Li
   0.2516928180173785    0.0001644042521848    0.2512857242070703 Li
   0.7516309297120178    0.0000840242571548    0.2503595779640085 Li
   0.2511461876832107    0.5007264423610757    0.2505488790022306 Li
   0.7502900753188795    0.4998167242028110    0.2500112221425824 Li
   0.2502872229467868    0.0013172744977978    0.7508274685214359 Li
   0.7491501866049302    0.0002069291733311    0.7494664227375747 Li
   0.2497007810922205    0.4983963920340647    0.7506811041509566 Li
   0.7500140370649002    0.5009136437375686    0.7501270194930491 Li
   0.2498761032793720    0.2520629018410101   -0.0014956065675465 Li
   0.7487351287335193    0.2509181092307048    0.0005832457892976 Li
   0.2485429040193148    0.7485410660163947   -0.0006531535698270 Li
   0.7511669139401917    0.7501772316886703    0.0011114193287854 Li
   0.2498742664270714    0.2507081423985114    0.4983587440792852 Li
   0.7492825271928669    0.2481169398830675    0.5007635677287586 Li
   0.2502292273415266    0.7480552150604782    0.4987880821168043 Li
   0.7496588043805016    0.7507607931065449    0.5013124393491094 Li
   0.2504331964473536    0.0004513086185974   -0.0009112919513153 Cl
   0.7503245387698727    0.0001144573967523   -0.0006770673349608 Cl
   0.2490285999356695    0.4994927303727202   -0.0001479897236765 Cl
   0.7510158144070040    0.5003806076954052   -0.0008861290529871 Cl
   0.2500758280119973    0.0006215336018892    0.4987550615111840 Cl
   0.7492651989982297    0.0027427918386038    0.5002881286409974 Cl
   0.2502193756946264    0.4991580435237534    0.4987616357662185 Cl
   0.7505623064842022    0.4980316769619009    0.4992623759959082 Cl
   0.2501628546535395    0.2493382810891903    0.2498374423787486 Cl
   0.7503001743339808    0.2485206076565366    0.2493032882610859 Cl
   0.2496108290330231    0.7497525957369363    0.2490572324842337 Cl
   0.7502983536003944    0.7489127820438525    0.2491971491817377 Cl
   0.2515426820524484    0.2491119778290798    0.7504413050951942 Cl
   0.7503014226907579    0.2512524709159852    0.7497079936818881 Cl
   0.2502263273124647    0.7508633462044769    0.7505204096554482 Cl
   0.7485040384467875    0.7495475246334642    0.7514620147263950 Cl
  -0.0005941341556632    0.0000536591618656    0.2503442010839207 Cl
   0.4976874699816159    0.0006819839872599    0.2492538815735491 Cl
  -0.0003893447686025    0.4995596536307101    0.2507200945191551 Cl
   0.5004184266852724    0.5005954003942011    0.2499945505811281 Cl
  -0.0001037319974636   -0.0000261611287698    0.7485484288605856 Cl
   0.5012157004898379   -0.0002601123757504    0.7493989203825683 Cl
  -0.0000833577149335    0.4996930566561876    0.7510264781865271 Cl
   0.5002096962127242    0.5020878320947310    0.7480038315018791 Cl
  -0.0004766080219387    0.2497688420916031   -0.0004791187060954 Cl
   0.4991725929217490    0.2499521704355148    0.0014547022640930 Cl
  -0.0000967412056533    0.7493755861936016    0.0016412883000580 Cl
   0.4986073023557626    0.7501929532007772   -0.0007241841283883 Cl
  -0.0007427472151524    0.2504288158997911    0.4994385374338989 Cl
   0.5005456930040167    0.2497348065637740    0.4994415150595817 Cl
  -0.0012463606976929    0.7528621297946635    0.5000241350779796 Cl
   0.5002540068875420    0.7477455351446899    0.5011841188156129 Cl
