Li32 Cl32
1.0
  10.2056952920104589    0.0000000000000000    0.0000000000000006
   0.0000000000000016   10.2056952920104589    0.0000000000000006
   0.0000000000000000    0.0000000000000000   10.2056952920104589
Li Cl
32 32
direct
   0.0004867029034270   -0.0001354775909089    0.0006346344071312 Li
   0.5014923332637613   -0.0002294340248495   -0.0002294179379748 Li
   0.0015473838580539    0.5007519671195295   -0.0004600121525306 Li
   0.5005316247723079    0.4995459224682366   -0.0004563429930490 Li
   0.0002370855337563   -0.0018747181744252    0.4983098478024682 Li
   0.4994490453485504   -0.0009924175583875    0.5003079136928977 Li
  -0.0008897228944627    0.4986161612110436    0.5014361086893010 Li
   0.4997787742098637    0.5000661671770082    0.4986039675441528 Li
  -0.0005334107172016    0.2501086869503116    0.2488722046421243 Li
   0.5003681258430670    0.2494114671536500    0.2497141853235402 Li
  -0.0005895792447384    0.7518149456078302    0.2499867748111699 Li
   0.4989636071833498    0.7508059665594240    0.2488037623943889 Li
   0.0002046539594106    0.2480798269321112    0.7486985834762888 Li
   0.5001928935072393    0.2507235828220087    0.7501679143618213 Li
  -0.0001133173968840    0.7497049650347437    0.7485512775484049 Li
   0.4992946642165985    0.7495486453810546    0.7510358159791880 Li
   0.2503366926796624   -0.0017275061668194    0.2503175520727612 Li
   0.7496226790342077   -0.0006632786703282    0.2505993479830029 Li
   0.2510102197772876    0.5009125102136306    0.2491776968651223 Li
   0.7496970197845380    0.5003245868330625    0.2509558830625543 Li
   0.2495304834956023   -0.0001819170290232    0.7489159631535619 Li
   0.7488279028622212    0.0007961494039806    0.7513289050767884 Li
   0.2499294412389162    0.5009833067411660    0.7503543472685598 Li
   0.7493678826026580    0.5003541116946646    0.7515070375143083 Li
   0.2499648960329650    0.2515331083390652   -0.0025669442689913 Li
   0.7508053370993926    0.2500852926388135   -0.0002929808718667 Li
   0.2500899113425495    0.7480524904401595   -0.0002152444116272 Li
   0.7503499149850096    0.7514481071621827   -0.0005078245072429 Li
   0.2492078015463325    0.2495083558452138    0.5008969522325624 Li
   0.7503221251470411    0.2494809170873622    0.5005029225529741 Li
   0.2500951209560647    0.7509491219978821    0.4993120967520685 Li
   0.7496789418680231    0.7496157947676145    0.4985659821244341 Li
   0.2502901519872893    0.0002557937158718    0.0000050103951726 Cl
   0.7497701409588831   -0.0013868440136151   -0.0004121672367532 Cl
   0.2496641928778776    0.4992138925901013   -0.0001580350059954 Cl
   0.7503959072314561    0.5018481699161517    0.0001710592055090 Cl
   0.2502523594751299   -0.0000729454619564    0.4981199015251797 Cl
   0.7499740205104203    0.0000590162729904    0.5024135955875674 Cl
   0.2498115160611039    0.5002954696703219    0.4999659878443242 Cl
   0.7488548766113617    0.5011197892762972    0.5007367778590013 Cl
   0.2507750887366413    0.2491089412051066    0.2513745210598579 Cl
   0.7486264031771653    0.2505750290176306    0.2521463070992573 Cl
   0.2490294278863037    0.7494451159735817    0.2500976428966732 Cl
   0.7495066718731936    0.7484805901149331    0.2500671810913850 Cl
   0.2489591069659333    0.2504640471982403    0.7490991067164688 Cl
   0.7515186955525027    0.2492325331396584    0.7496844296179822 Cl
   0.2507971208174387    0.7487939436939709    0.7502228754906902 Cl
   0.7512807973556742    0.7484249155118126    0.7501809125720977 Cl
   0.0002546448691760    0.0007660652698394    0.2487879799705107 Cl
   0.4987061571257002    0.0005114218587591    0.2502909989615952 Cl
   0.0002454441791359    0.5003394655626924    0.2493336811435956 Cl
   0.5002275726351959    0.5002871656118599    0.2493000463000442 Cl
   0.0018281699166596    0.0004642828414471    0.7488327071668156 Cl
   0.5006433208025991   -0.0009550370085910    0.7507712209518529 Cl
   0.0011352441414887    0.4991958584938409    0.7509439593302365 Cl
   0.5004044613474395    0.5008054915774705    0.7518585632123849 Cl
  -0.0002404423304652    0.2492614553513590   -0.0008715863095794 Cl
   0.4992006323316314    0.2499244522717874    0.0003342760733644 Cl
   0.0002711141097330    0.7508105114109016    0.0000127398393798 Cl
   0.5014242381685599    0.7497406773123579    0.0026653442893980 Cl
   0.0006130570528152    0.2491601184124247    0.4989506912881286 Cl
   0.5004727482071906    0.2497810410962389    0.5006996098488764 Cl
   0.0004636995432776    0.7499286389505339    0.4991702733681151 Cl
   0.4985156844474165    0.7495624845350648    0.5008391381182954 Cl
