Li4 Cl4
1.0
   5.0610191446384887    0.0000000000000000    0.0000000000000003
   0.0000000000000008    5.0610191446384887    0.0000000000000003
   0.0000000000000000    0.0000000000000000    5.0610191446384887
Li Cl
4 4
direct
   0.0019758866177366    0.0000000000000000    0.0000000000000000 Li
   0.0000000000000000    0.4999999999999999    0.4999999999999999 Li
   0.4999999999999999    0.0000000000000000    0.4999999999999999 Li
   0.5000000000000000    0.4999999999999999    0.0000000000000000 Li
   0.4999999999999999    0.0000000000000000    0.0000000000000000 Cl
   0.5000000000000000    0.4999999999999999    0.5000000000000000 Cl
   0.0000000000000000    0.0000000000000000    0.4999999999999999 Cl
   0.0000000000000000    0.4999999999999999    0.0000000000000000 Cl
