Li32 Cl32
1.0
  10.0369751223505350    0.0000000000000000    0.0000000000000006
   0.0000000000000016   10.0369751223505350    0.0000000000000006
   0.0000000000000000    0.0000000000000000   10.0369751223505350
Li Cl
32 32
direct
   0.0002564516920755   -0.0009051346862041   -0.0003771087418718 Li
   0.4994670549719861    0.0008549122973921   -0.0004114884985567 Li
   0.0004963533120431    0.5020027938926496    0.0012582093002358 Li
   0.4995624031627920    0.4996548383464484    0.0004536423115599 Li
  -0.0016625155354802   -0.0008589096660109    0.5004910950182850 Li
   0.4998761445608561    0.0019280074562416    0.4993838356203480 Li
  -0.0010429825454922    0.4991136596655708    0.5000139888133884 Li
   0.4998397627928681    0.5022221432469881    0.4996023545802791 Li
   0.0000542439955274    0.2508809245857611    0.2498924172272755 Li
   0.5005535601886812    0.2503934518429470    0.2508341208505967 Li
  -0.0014026917006713    0.7508048733844481    0.2498622257772334 Li
   0.5001864890398275    0.7496147662709131    0.2516529369751029 Li
  -0.0020395279515380    0.2513941620550499    0.7493234942670225 Li
   0.5015233525200148    0.2512167171367537    0.7510112494097178 Li
   0.0008250792417584    0.7522579439328921    0.7494072360817071 Li
   0.4994208717960912    0.7493465220963601    0.7509217407058194 Li
   0.2487056246245367    0.0010074418386861    0.2497126223994275 Li
   0.7489362202731998   -0.0010736311333050    0.2492061614646776 Li
   0.2485194318370370    0.5005122347713393    0.2508486529597411 Li
   0.7509551417888229    0.4993758238498251    0.2503067966285877 Li
   0.2500051865077597    0.0006889843794697    0.7504432233353718 Li
   0.7500899469525334   -0.0018514969666527    0.7498340336188063 Li
   0.2501104680232699    0.4993077868226814    0.7497318160475067 Li
   0.7487055610538301    0.4996800774703650    0.7505040051768525 Li
   0.2520813637034449    0.2489910214557121   -0.0000238857524079 Li
   0.7490420728971444    0.2499077748147841   -0.0002229078765324 Li
   0.2508298238781569    0.7509705310280396    0.0001622183533518 Li
   0.7498859297560183    0.7511820976122322    0.0001791293180181 Li
   0.2515108552120017    0.2483719875762276    0.5017754063144259 Li
   0.7493845479406323    0.2489176028837219    0.4999554115383777 Li
   0.2488405845331260    0.7505668435839171    0.4995390604739966 Li
   0.7502862965199470    0.7490262616984453    0.4997783831724953 Li
   0.2500965746818126   -0.0001876903614725    0.0015857388695014 Cl
   0.7505836527640386    0.0002029250740709   -0.0018496814804935 Cl
   0.2503767962474355    0.5012315865089861   -0.0006874300226157 Cl
   0.7498023760248541    0.4969854066229726   -0.0012410374721742 Cl
   0.2479236379027457    0.0001037380734966    0.4998503199497458 Cl
   0.7498945733133529   -0.0004353444475546    0.5010153819291592 Cl
   0.2487717382863830    0.4999261485284203    0.5005941921500071 Cl
   0.7498212683005142    0.4999095394113590    0.4991779598745061 Cl
   0.2496662645298884    0.2507157044814328    0.2479879772938944 Cl
   0.7498425531127606    0.2494179370567819    0.2499299525037599 Cl
   0.2517666490236461    0.7495550160410451    0.2514838878849989 Cl
   0.7510962553039734    0.7500297861831773    0.2500867849226035 Cl
   0.2501805672924186    0.2491778680457724    0.7506245295612082 Cl
   0.7493895592649880    0.2500356106646488    0.7478121270754141 Cl
   0.2491398975500039    0.7505331281153100    0.7488806754211140 Cl
   0.7503327348017208    0.7494946381264963    0.7509865025658210 Cl
   0.0012533098404030    0.0001769705678746    0.2499851873534845 Cl
   0.5000402871520894   -0.0000213657694500    0.2511872666500316 Cl
   0.0024956370368245    0.4986714511986728    0.2489755153906901 Cl
   0.5013581478956255    0.4988619334216052    0.2486330289273536 Cl
   0.0021075786377172   -0.0002732644867220    0.7497507760851331 Cl
   0.4994930440758001    0.0005791991335257    0.7488710741365813 Cl
   0.0017678525680870    0.5007502721834248    0.7499483905946397 Cl
   0.4994503268238331    0.5001078581332922    0.7510401237810180 Cl
   0.0026078002552857    0.2515032102361191    0.0010091710647136 Cl
   0.5000428871647310    0.2512279641979924   -0.0003451347011579 Cl
   0.0003306607612294    0.7511663832121874    0.0006045384035747 Cl
   0.4993377556637708    0.7484728726982813    0.0004996491508042 Cl
   0.0001341404536563    0.2509265637876191    0.5000576762032958 Cl
   0.4996218147111998    0.2510500704554409    0.5009926430432872 Cl
  -0.0021014233793805    0.7484864806514678    0.5001293563289686 Cl
   0.4999350024614349    0.7498137037827329    0.5008208972207244 Cl
