Li32 Cl32
1.0
  10.2056952920104589    0.0000000000000000    0.0000000000000006
   0.0000000000000016   10.2056952920104589    0.0000000000000006
   0.0000000000000000    0.0000000000000000   10.2056952920104589
Li Cl
32 32
direct
  -0.0015289032878585   -0.0000303532513830   -0.0006084136417110 Li
   0.4985649380632124    0.0013834884164063   -0.0004671236303235 Li
  -0.0007647388948675    0.5010486965410227   -0.0012564480510146 Li
   0.4986992763716281    0.5001237913106089    0.0008448162430728 Li
   0.0006826942643047   -0.0003278220398734    0.4990225790250014 Li
   0.5015666823750327    0.0032472803181832    0.5009678619954572 Li
   0.0001213697391013    0.5007278145895041    0.4996139843102804 Li
   0.5001451305506690    0.4995960741125398    0.4998425241432235 Li
   0.0001367192246811    0.2502797157474298    0.2497244068291675 Li
   0.5016764240623728    0.2498532519003442    0.2506763936198037 Li
   0.0010731356179301    0.7513114331409294    0.2486586100906217 Li
   0.5004766237023562    0.7507383344867925    0.2503561389823697 Li
  -0.0003083675065121    0.2513456027538287    0.7493881679336972 Li
   0.5003681806939173    0.2498036230658782    0.7507280621643100 Li
   0.0008400818687052    0.7485241678855737    0.7483672330761263 Li
   0.4997854190270736    0.7496483743450191    0.7503708984863955 Li
   0.2506704250384212   -0.0011443179851264    0.2492227706236949 Li
   0.7499619473292485    0.0026507307101655    0.2485386703555383 Li
   0.2500940435015064    0.5005141116728326    0.2507992258029129 Li
   0.7500504677068782    0.4998387612456836    0.2502725923207074 Li
   0.2500853589092827    0.0000335776918639    0.7507315218560978 Li
   0.7490753813857939   -0.0002408230497405    0.7510857868345359 Li
   0.2500382216883776    0.4997910316931047    0.7491270025331377 Li
   0.7497348085258342    0.5002177644069792    0.7502467383063132 Li
   0.2506936578714633    0.2504840334904900    0.0014413537019110 Li
   0.7494291231979728    0.2520241830011791    0.0010659086478985 Li
   0.2507889604940569    0.7484441189023466    0.0012060770623095 Li
   0.7476743834587325    0.7499695160699686   -0.0037331022226718 Li
   0.2498049621452096    0.2503433678276746    0.4999485083737213 Li
   0.7493785028211187    0.2496443837530579    0.4974808970017532 Li
   0.2501347431368682    0.7492952011922303    0.5007138395421162 Li
   0.7515890592839024    0.7514909932211699    0.4987195645252229 Li
   0.2491281649345679    0.0000051615698944    0.0008489621190696 Cl
   0.7494752581132365   -0.0002529459388305    0.0000462057279525 Cl
   0.2495815423292944    0.4998812104787357   -0.0001651769342909 Cl
   0.7498080494015859    0.4998105537038572    0.0002906515353393 Cl
   0.2492550772822663   -0.0023954426547430    0.4994801556527021 Cl
   0.7508253681654606   -0.0001614647916526    0.4987417792812803 Cl
   0.2501961370370833    0.5008314074202315    0.4983246164202603 Cl
   0.7484482497026259    0.4989216905695653    0.4988660669285414 Cl
   0.2517716038043303    0.2489112171397625    0.2508528721689134 Cl
   0.7507338773209787    0.2506952319734694    0.2503097774507999 Cl
   0.2492374706250794    0.7494748406872382    0.2488498263103215 Cl
   0.7490840445680107    0.7489221315976196    0.2499725704011403 Cl
   0.2493722896219579    0.2504156802955536    0.7511394253304542 Cl
   0.7524147029623497    0.2498661048391455    0.7484558103712284 Cl
   0.2513548588278197    0.7498439067733107    0.7507681587689341 Cl
   0.7488084424725580    0.7494847168569594    0.7501587050670357 Cl
  -0.0009047571359616    0.0012372827540767    0.2516020513868560 Cl
   0.5003255175558166   -0.0005453607148754    0.2492967131630213 Cl
  -0.0003195533447074    0.4996244357205322    0.2493015815629819 Cl
   0.5006471357921177    0.4991723798158529    0.2499247493006307 Cl
   0.0014891585159091   -0.0008592380725496    0.7500015596588397 Cl
   0.4994556557766494    0.0003247588262832    0.7494634271031735 Cl
  -0.0018395528151208    0.4993282524461558    0.7491831088656572 Cl
   0.5008673094398991    0.4997787921568864    0.7499933267857473 Cl
   0.0000096950033427    0.2499291090484771   -0.0012382817078825 Cl
   0.4985427374852797    0.2486045435347505   -0.0009857578257995 Cl
  -0.0015643711284232    0.7501522999374244    0.0025274986979694 Cl
   0.4995791009741914    0.7472554810105524    0.0000188322122690 Cl
  -0.0012651221991847    0.2507298917773825    0.5000471654185964 Cl
   0.4986398391054450    0.2507109495757843    0.4997966072584685 Cl
  -0.0001408689600781    0.7494849138576906    0.5026574812469548 Cl
   0.4999236797853843    0.7500804425561007    0.5000630310661162 Cl
