Si18
1.0
   3.5662453400000000   -0.5247822900000000    0.9689517700000000
   0.9530203800000000   10.0207507200000006    0.7294162700000000
  -2.4715567599999999   -4.6017257999999996    8.1268432199999996
Si
18
direct
   0.9779285793209831    0.7524142402727714    0.7882032998661317 Si
   0.8537322406373099    0.1966754600990714    0.0072902297015659 Si
   0.2963281495045220    0.0161245699919441    0.2176222997615415 Si
   0.3384397299066417    0.2201511704261493    0.1649648101738896 Si
   0.4415620506279951    0.7870174900269721    0.9672546799148094 Si
   0.7977351103214549    0.9800959492872200    0.7778572294509808 Si
   0.1227291002248245    0.4736583599899281    0.6198374104857505 Si
   0.7603706808064347    0.3758765599720676    0.9056013098061516 Si
   0.2731974308503591    0.1542702695738301    0.5123464595658404 Si
   0.3807064202496110    0.4757996494901831    0.3424924499343718 Si
   0.4259192397854286    0.6726229604851663    0.1410149299987857 Si
   0.8606356087533127    0.8533081801095562    0.4976384500349015 Si
   0.8988448588540272    0.5393319394883946    0.1826037000212365 Si
   0.3694758492331976    0.8858179399874235    0.3716463001028005 Si
   0.9033209909352516    0.6204763004561191    0.4933471299638326 Si
   0.2770068492687279    0.4991827296263083    0.8670436401511511 Si
   0.7556780998502796    0.1603955302969738    0.6677194503779224 Si
   0.6309306311633153    0.3367807299076226    0.4755162096470212 Si
