Si8
1.0
   2.5809241699999999   -0.0683762800000000    0.1920023700000000
  -1.1302846700000000    5.9674914799999996   -0.2465968300000000
  -0.3862456400000000   -1.5025668200000000    9.4296123000000005
Si
8
direct
   0.6937321799607213    0.4583869005032312    0.1836799094995556 Si
   0.0565504784641796    0.1948747606285782    0.9818304801702459 Si
   0.9928028587510536    0.0857654999581372    0.5072964302668164 Si
   0.0928748783658350    0.4875685001345751    0.5876598298512589 Si
   0.7598888978838493    0.6817110196542289    0.4217322897880343 Si
   0.4436326981993750    0.0764688201901515    0.2612684202497865 Si
   0.8736354386715485    0.8077393893070275    0.0527021103644231 Si
   0.0094867709739662    0.5035759207417593    0.8496861300658776 Si
