Si12
1.0
   3.6528014099999999    0.5565620400000000   -0.4552431000000000
  -0.2264607800000000    6.9053786400000003   -0.3796559000000000
   2.3275774100000000    4.3557787000000001    8.6219358800000006
Si
12
direct
   0.2220978610624338    0.8242865105325093    0.0158029098898276 Si
   0.1734041209981906    0.4627920204725885    0.1385717496940294 Si
   0.3685685706337947    0.8255702603441735    0.7714183695439520 Si
   0.4110684799598617    0.8743657995862399    0.3419802599715401 Si
   0.8432529092961776    0.0238248904418563    0.4068177295161137 Si
   0.6142179985545837    0.3752733493382809    0.2921725401333909 Si
   0.9819787398981392    0.3091416903688651    0.9847479197873409 Si
   0.3671499192495473    0.5140484696721094    0.4747727701497243 Si
   0.6545757588246511    0.9794623899389396    0.0861163204104698 Si
   0.8170457302381577    0.3735710007835834    0.6238068596714935 Si
   0.5293610303700943    0.4572315895149158    0.8285514397853062 Si
   0.8773380607474170    0.0145192200714267    0.6482476295203159 Si
