Si16
1.0
   4.9809117699999996    0.1475341300000000    0.5788743300000000
   0.0410248800000000    4.7115468700000003   -1.5272508300000001
   2.0382351700000001    3.3732212100000001   13.8656695200000009
Si
16
direct
   0.8834456205249573    0.5180459198244570    0.8246498802574369 Si
   0.2489287404847565    0.4864165900461504    0.6680183398030314 Si
   0.1160493794249283    0.9813636395416245    0.1755000501598746 Si
   0.7517526300729209    0.0141039605388374    0.3319070701015832 Si
   0.1167563701277040    0.4821087607242556    0.1753853397362296 Si
   0.7509830895035998    0.5134096707276290    0.3319273704261105 Si
   0.8841850096638729    0.0187852399654686    0.8244774896570439 Si
   0.2479477396407696    0.9856483809429193    0.6681403298168079 Si
   0.2508983704044486    0.5135617192083575    0.3319994796653153 Si
   0.6167546407013166    0.4822546803499150    0.1754356100811947 Si
   0.7478689291306565    0.9855774808611714    0.6681194302975283 Si
   0.3841534704517102    0.0186864995109592    0.8244319599983509 Si
   0.7490240396271663    0.4863131894245346    0.6679265497953030 Si
   0.3834435903640170    0.5179667209732636    0.8246163199376489 Si
   0.2517364996647097    0.0142464102058708    0.3319137303534608 Si
   0.6160719000143897    0.9815111597260283    0.1755510501301188 Si
