Si8
1.0
   6.6202926900000003   -0.3876030300000000   -0.0403668100000000
   0.1893462100000000    3.6839254900000000   -0.1482965500000000
   0.1815908200000000    0.2946593900000000    6.7078470100000001
Si
8
direct
   0.6753252896887046    0.0019064406935330    0.9296344604965415 Si
   0.3231275494680720    0.9938341487427590    0.9240439405796587 Si
   0.1829963402399145    0.5044247104327703    0.0706234999222334 Si
   0.8246879994044308    0.5088925600732109    0.0747020607377812 Si
   0.6753757305604822    0.9949434411768878    0.5783056005574889 Si
   0.3218818093478233    0.9967758886465016    0.5740101498304535 Si
   0.1774255293118297    0.5000057891082615    0.4257664794498142 Si
   0.8191797595242448    0.4992170101238841    0.4229138201545309 Si
