ALGO = Normal
EDIFF = 1e-05
ENAUG = 1360
ENCUT = 680
GGA = Ps
ISMEAR = 0
ISPIN = 2
LAECHG = True
LASPH = True
LCHARG = False
LELF = False
LMIXTAU = True
LORBIT = 11
LREAL = False
LVTOT = True
LWAVE = False
MAGMOM = 1*0.6
NELM = 200
NSW = 0
PREC = Accurate
SIGMA = 0.2
NPAR = 4