Cl1
1.0
  20.0000000000000000    0.0000000000000000    0.0000000000000012
   0.0000000000000032   20.0000000000000000    0.0000000000000012
   0.0000000000000000    0.0000000000000000   20.0000000000000000
Cl
1
direct
   0.4999999999999999    0.5000000000000000    0.4999999999999999 Cl
